*Heading
** verification deck t14_f.inp
*Part, name=PLATE
*Node
1, 0, 0, 0
2, 1.5, 0, 0
3, 3, 0, 0
4, 0, 1, 0
5, 1.5, 1, 0
6, 3, 1, 0
7, 0, 2, 0
8, 1.5, 2, 0
9, 3, 2, 0
10, 0, 0, 0.6
11, 1.5, 0, 0.6
12, 3, 0, 0.6
13, 0, 1, 0.6
14, 1.5, 1, 0.6
15, 3, 1, 0.6
16, 0, 2, 0.6
17, 1.5, 2, 0.6
18, 3, 2, 0.6
19, 0, 0, 1.2
20, 1.5, 0, 1.2
21, 3, 0, 1.2
22, 0, 1, 1.2
23, 1.5, 1, 1.2
24, 3, 1, 1.2
25, 0, 2, 1.2
26, 1.5, 2, 1.2
27, 3, 2, 1.2
*Element, type=C3D8R, elset=HOST
1, 1, 2, 5, 4, 10, 11, 14, 13
2, 2, 3, 6, 5, 11, 12, 15, 14
3, 4, 5, 8, 7, 13, 14, 17, 16
4, 5, 6, 9, 8, 14, 15, 18, 17
5, 10, 11, 14, 13, 19, 20, 23, 22
6, 11, 12, 15, 14, 20, 21, 24, 23
7, 13, 14, 17, 16, 22, 23, 26, 25
8, 14, 15, 18, 17, 23, 24, 27, 26
*End Part
*Part, name=EMBFIB
*Node, nset=EMBMESH_NODES
100000, 0, 0.1, 0.1
100001, 3, 0.1, 0.1
100002, 0, 0.3, 0.1
100003, 3, 0.3, 0.1
100004, 0, 0.5, 0.1
100005, 3, 0.5, 0.1
100006, 0, 0.7, 0.1
100007, 3, 0.7, 0.1
100008, 0, 0.9, 0.1
100009, 3, 0.9, 0.1
100010, 0, 1.1, 0.1
100011, 3, 1.1, 0.1
100012, 0, 1.3, 0.1
100013, 3, 1.3, 0.1
100014, 0, 1.5, 0.1
100015, 3, 1.5, 0.1
100016, 0, 1.7, 0.1
100017, 3, 1.7, 0.1
100018, 0, 1.9, 0.1
100019, 3, 1.9, 0.1
100020, 0.1, 0, 0.3
100021, 0.1, 2, 0.3
100022, 0.3, 0, 0.3
100023, 0.3, 2, 0.3
100024, 0.5, 0, 0.3
100025, 0.5, 2, 0.3
100026, 0.7, 0, 0.3
100027, 0.7, 2, 0.3
100028, 0.9, 0, 0.3
100029, 0.9, 2, 0.3
100030, 1.1, 0, 0.3
100031, 1.1, 2, 0.3
100032, 1.3, 0, 0.3
100033, 1.3, 2, 0.3
100034, 1.5, 0, 0.3
100035, 1.5, 2, 0.3
100036, 1.7, 0, 0.3
100037, 1.7, 2, 0.3
100038, 1.9, 0, 0.3
100039, 1.9, 2, 0.3
100040, 2.1, 0, 0.3
100041, 2.1, 2, 0.3
100042, 2.3, 0, 0.3
100043, 2.3, 2, 0.3
100044, 2.5, 0, 0.3
100045, 2.5, 2, 0.3
100046, 2.7, 0, 0.3
100047, 2.7, 2, 0.3
100048, 2.9, 0, 0.3
100049, 2.9, 2, 0.3
100050, 0, 0.1, 0.5
100051, 3, 0.1, 0.5
100052, 0, 0.3, 0.5
100053, 3, 0.3, 0.5
100054, 0, 0.5, 0.5
100055, 3, 0.5, 0.5
100056, 0, 0.7, 0.5
100057, 3, 0.7, 0.5
100058, 0, 0.9, 0.5
100059, 3, 0.9, 0.5
100060, 0, 1.1, 0.5
100061, 3, 1.1, 0.5
100062, 0, 1.3, 0.5
100063, 3, 1.3, 0.5
100064, 0, 1.5, 0.5
100065, 3, 1.5, 0.5
100066, 0, 1.7, 0.5
100067, 3, 1.7, 0.5
100068, 0, 1.9, 0.5
100069, 3, 1.9, 0.5
100070, 0.1, 0, 0.7
100071, 0.1, 2, 0.7
100072, 0.3, 0, 0.7
100073, 0.3, 2, 0.7
100074, 0.5, 0, 0.7
100075, 0.5, 2, 0.7
100076, 0.7, 0, 0.7
100077, 0.7, 2, 0.7
100078, 0.9, 0, 0.7
100079, 0.9, 2, 0.7
100080, 1.1, 0, 0.7
100081, 1.1, 2, 0.7
100082, 1.3, 0, 0.7
100083, 1.3, 2, 0.7
100084, 1.5, 0, 0.7
100085, 1.5, 2, 0.7
100086, 1.7, 0, 0.7
100087, 1.7, 2, 0.7
100088, 1.9, 0, 0.7
100089, 1.9, 2, 0.7
100090, 2.1, 0, 0.7
100091, 2.1, 2, 0.7
100092, 2.3, 0, 0.7
100093, 2.3, 2, 0.7
100094, 2.5, 0, 0.7
100095, 2.5, 2, 0.7
100096, 2.7, 0, 0.7
100097, 2.7, 2, 0.7
100098, 2.9, 0, 0.7
100099, 2.9, 2, 0.7
100100, 0, 0.1, 0.9
100101, 3, 0.1, 0.9
100102, 0, 0.3, 0.9
100103, 3, 0.3, 0.9
100104, 0, 0.5, 0.9
100105, 3, 0.5, 0.9
100106, 0, 0.7, 0.9
100107, 3, 0.7, 0.9
100108, 0, 0.9, 0.9
100109, 3, 0.9, 0.9
100110, 0, 1.1, 0.9
100111, 3, 1.1, 0.9
100112, 0, 1.3, 0.9
100113, 3, 1.3, 0.9
100114, 0, 1.5, 0.9
100115, 3, 1.5, 0.9
100116, 0, 1.7, 0.9
100117, 3, 1.7, 0.9
100118, 0, 1.9, 0.9
100119, 3, 1.9, 0.9
100120, 0.1, 0, 1.1
100121, 0.1, 2, 1.1
100122, 0.3, 0, 1.1
100123, 0.3, 2, 1.1
100124, 0.5, 0, 1.1
100125, 0.5, 2, 1.1
100126, 0.7, 0, 1.1
100127, 0.7, 2, 1.1
100128, 0.9, 0, 1.1
100129, 0.9, 2, 1.1
100130, 1.1, 0, 1.1
100131, 1.1, 2, 1.1
100132, 1.3, 0, 1.1
100133, 1.3, 2, 1.1
100134, 1.5, 0, 1.1
100135, 1.5, 2, 1.1
100136, 1.7, 0, 1.1
100137, 1.7, 2, 1.1
100138, 1.9, 0, 1.1
100139, 1.9, 2, 1.1
100140, 2.1, 0, 1.1
100141, 2.1, 2, 1.1
100142, 2.3, 0, 1.1
100143, 2.3, 2, 1.1
100144, 2.5, 0, 1.1
100145, 2.5, 2, 1.1
100146, 2.7, 0, 1.1
100147, 2.7, 2, 1.1
100148, 2.9, 0, 1.1
100149, 2.9, 2, 1.1
*Element, type=T3D2, elset=EMBMESH_FIBERS_T0
100000, 100000,100001
100001, 100002,100003
100002, 100004,100005
100003, 100006,100007
100004, 100008,100009
100005, 100010,100011
100006, 100012,100013
100007, 100014,100015
100008, 100016,100017
100009, 100018,100019
100025, 100050,100051
100026, 100052,100053
100027, 100054,100055
100028, 100056,100057
100029, 100058,100059
100030, 100060,100061
100031, 100062,100063
100032, 100064,100065
100033, 100066,100067
100034, 100068,100069
100050, 100100,100101
100051, 100102,100103
100052, 100104,100105
100053, 100106,100107
100054, 100108,100109
100055, 100110,100111
100056, 100112,100113
100057, 100114,100115
100058, 100116,100117
100059, 100118,100119
*Element, type=T3D2, elset=EMBMESH_FIBERS_T90
100010, 100020,100021
100011, 100022,100023
100012, 100024,100025
100013, 100026,100027
100014, 100028,100029
100015, 100030,100031
100016, 100032,100033
100017, 100034,100035
100018, 100036,100037
100019, 100038,100039
100020, 100040,100041
100021, 100042,100043
100022, 100044,100045
100023, 100046,100047
100024, 100048,100049
100035, 100070,100071
100036, 100072,100073
100037, 100074,100075
100038, 100076,100077
100039, 100078,100079
100040, 100080,100081
100041, 100082,100083
100042, 100084,100085
100043, 100086,100087
100044, 100088,100089
100045, 100090,100091
100046, 100092,100093
100047, 100094,100095
100048, 100096,100097
100049, 100098,100099
100060, 100120,100121
100061, 100122,100123
100062, 100124,100125
100063, 100126,100127
100064, 100128,100129
100065, 100130,100131
100066, 100132,100133
100067, 100134,100135
100068, 100136,100137
100069, 100138,100139
100070, 100140,100141
100071, 100142,100143
100072, 100144,100145
100073, 100146,100147
100074, 100148,100149
*Solid Section, elset=EMBMESH_FIBERS_T0, material=EMBMESH_FIBER
0.0314159265358979
*Solid Section, elset=EMBMESH_FIBERS_T90, material=EMBMESH_FIBER
0.0314159265358979
*End Part
*Assembly, name=Assembly
*Instance, name=PLATE-1, part=PLATE
*End Instance
*Instance, name=EMBFIB-1, part=EMBFIB
*End Instance
*Embedded Element, host elset=PLATE-1.HOST
EMBFIB-1.EMBMESH_FIBERS_T0
EMBFIB-1.EMBMESH_FIBERS_T90
*End Assembly
*Material, name=EMBMESH_FIBER
*Elastic
1, 0.3
