*Heading
** verification deck t14_b.inp
*Part, name=PLATE
*Node
1, 0, 0, 0
2, 0.5, 0, 0
3, 1, 0, 0
4, 0, 0.5, 0
5, 0.5, 0.5, 0
6, 1, 0.5, 0
7, 0, 1, 0
8, 0.5, 1, 0
9, 1, 1, 0
10, 0, 0, 0.5
11, 0.5, 0, 0.5
12, 1, 0, 0.5
13, 0, 0.5, 0.5
14, 0.5, 0.5, 0.5
15, 1, 0.5, 0.5
16, 0, 1, 0.5
17, 0.5, 1, 0.5
18, 1, 1, 0.5
19, 0, 0, 1
20, 0.5, 0, 1
21, 1, 0, 1
22, 0, 0.5, 1
23, 0.5, 0.5, 1
24, 1, 0.5, 1
25, 0, 1, 1
26, 0.5, 1, 1
27, 1, 1, 1
*Element, type=C3D8R, elset=HOST
1, 1, 2, 5, 4, 10, 11, 14, 13
2, 2, 3, 6, 5, 11, 12, 15, 14
3, 4, 5, 8, 7, 13, 14, 17, 16
4, 5, 6, 9, 8, 14, 15, 18, 17
5, 10, 11, 14, 13, 19, 20, 23, 22
6, 11, 12, 15, 14, 20, 21, 24, 23
7, 13, 14, 17, 16, 22, 23, 26, 25
8, 14, 15, 18, 17, 23, 24, 27, 26
*End Part
*Assembly, name=Assembly
*Instance, name=PLATE-1, part=PLATE
*End Instance
*End Assembly
** embmesh generated fibers
*Node, nset=EMBMESH_NODES
100000, 0, 0.15, 0.15
100001, 1, 0.15, 0.15
100002, 0, 0.45, 0.15
100003, 1, 0.45, 0.15
100004, 0, 0.75, 0.15
100005, 1, 0.75, 0.15
100006, 0.15, 0, 0.45
100007, 0.15, 1, 0.45
100008, 0.45, 0, 0.45
100009, 0.45, 1, 0.45
100010, 0.75, 0, 0.45
100011, 0.75, 1, 0.45
100012, 0, 0.15, 0.75
100013, 1, 0.15, 0.75
100014, 0, 0.45, 0.75
100015, 1, 0.45, 0.75
100016, 0, 0.75, 0.75
100017, 1, 0.75, 0.75
*Element, type=T3D2, elset=EMBMESH_FIBERS
100000, 100000,100001
100001, 100002,100003
100002, 100004,100005
100003, 100006,100007
100004, 100008,100009
100005, 100010,100011
100006, 100012,100013
100007, 100014,100015
100008, 100016,100017
*Solid Section, elset=EMBMESH_FIBERS, material=EMBMESH_FIBER
0.0706858347057703
*Material, name=EMBMESH_FIBER
*Elastic
1., 0.3
*Embedded Element, host elset=HOST
EMBMESH_FIBERS
