*Part, name=P
*Node
1,0,0,0
2,1,0,0
3,1,1,0
4,0,1,0
5,0,0,1
6,1,0,1
7,1,1,1
8,0,1,1
*Element, type=C3D8, elset=HOST
1,1,2,3,3,5,6,7,7
*End Part
*Assembly, name=A
*Instance, name=I, part=P
*End Instance
*End Assembly
** embmesh generated fibers
*Node, nset=EMBMESH_NODES
100000, 0, 0.1, 0.1
100001, 1, 0.1, 0.1
100002, 0, 0.3, 0.1
100003, 1, 0.3, 0.1
100004, 0, 0.5, 0.1
100005, 1, 0.5, 0.1
100006, 0, 0.7, 0.1
100007, 1, 0.7, 0.1
100008, 0, 0.9, 0.1
100009, 1, 0.9, 0.1
100010, 0.1, 0, 0.3
100011, 0.1, 1, 0.3
100012, 0.3, 0, 0.3
100013, 0.3, 1, 0.3
100014, 0.5, 0, 0.3
100015, 0.5, 1, 0.3
100016, 0.7, 0, 0.3
100017, 0.7, 1, 0.3
100018, 0.9, 0, 0.3
100019, 0.9, 1, 0.3
100020, 0, 0.1, 0.5
100021, 1, 0.1, 0.5
100022, 0, 0.3, 0.5
100023, 1, 0.3, 0.5
100024, 0, 0.5, 0.5
100025, 1, 0.5, 0.5
100026, 0, 0.7, 0.5
100027, 1, 0.7, 0.5
100028, 0, 0.9, 0.5
100029, 1, 0.9, 0.5
100030, 0.1, 0, 0.7
100031, 0.1, 1, 0.7
100032, 0.3, 0, 0.7
100033, 0.3, 1, 0.7
100034, 0.5, 0, 0.7
100035, 0.5, 1, 0.7
100036, 0.7, 0, 0.7
100037, 0.7, 1, 0.7
100038, 0.9, 0, 0.7
100039, 0.9, 1, 0.7
100040, 0, 0.1, 0.9
100041, 1, 0.1, 0.9
100042, 0, 0.3, 0.9
100043, 1, 0.3, 0.9
100044, 0, 0.5, 0.9
100045, 1, 0.5, 0.9
100046, 0, 0.7, 0.9
100047, 1, 0.7, 0.9
100048, 0, 0.9, 0.9
100049, 1, 0.9, 0.9
*Element, type=T3D2, elset=EMBMESH_FIBERS
100000, 100000,100001
100001, 100002,100003
100002, 100004,100005
100003, 100006,100007
100004, 100008,100009
100005, 100010,100011
100006, 100012,100013
100007, 100014,100015
100008, 100016,100017
100009, 100018,100019
100010, 100020,100021
100011, 100022,100023
100012, 100024,100025
100013, 100026,100027
100014, 100028,100029
100015, 100030,100031
100016, 100032,100033
100017, 100034,100035
100018, 100036,100037
100019, 100038,100039
100020, 100040,100041
100021, 100042,100043
100022, 100044,100045
100023, 100046,100047
100024, 100048,100049
*Solid Section, elset=EMBMESH_FIBERS, material=EMBMESH_FIBER
0.0314159265358979
*Material, name=EMBMESH_FIBER
*Elastic
1., 0.3
*Embedded Element, host elset=HOST
EMBMESH_FIBERS
