*Heading
** verification deck t13_scale_0.001.inp
*Part, name=PLATE
*Node
1, 0, 0, 0
2, 0.001, 0, 0
3, 0.002, 0, 0
4, 0, 0.001, 0
5, 0.001, 0.001, 0
6, 0.002, 0.001, 0
7, 0, 0.002, 0
8, 0.001, 0.002, 0
9, 0.002, 0.002, 0
10, 0, 0, 0.0005
11, 0.001, 0, 0.0005
12, 0.002, 0, 0.0005
13, 0, 0.001, 0.0005
14, 0.001, 0.001, 0.0005
15, 0.002, 0.001, 0.0005
16, 0, 0.002, 0.0005
17, 0.001, 0.002, 0.0005
18, 0.002, 0.002, 0.0005
19, 0, 0, 0.001
20, 0.001, 0, 0.001
21, 0.002, 0, 0.001
22, 0, 0.001, 0.001
23, 0.001, 0.001, 0.001
24, 0.002, 0.001, 0.001
25, 0, 0.002, 0.001
26, 0.001, 0.002, 0.001
27, 0.002, 0.002, 0.001
*Element, type=C3D8R, elset=HOST
1, 1, 2, 5, 4, 10, 11, 14, 13
2, 2, 3, 6, 5, 11, 12, 15, 14
3, 4, 5, 8, 7, 13, 14, 17, 16
4, 5, 6, 9, 8, 14, 15, 18, 17
5, 10, 11, 14, 13, 19, 20, 23, 22
6, 11, 12, 15, 14, 20, 21, 24, 23
7, 13, 14, 17, 16, 22, 23, 26, 25
8, 14, 15, 18, 17, 23, 24, 27, 26
*End Part
*Part, name=EMBFIB
*Node, nset=EMBMESH_NODES
100000, 0, 0.000125, 0.000125
100001, 0.002, 0.000125, 0.000125
100002, 0, 0.000375, 0.000125
100003, 0.002, 0.000375, 0.000125
100004, 0, 0.000625, 0.000125
100005, 0.002, 0.000625, 0.000125
100006, 0, 0.000875, 0.000125
100007, 0.002, 0.000875, 0.000125
100008, 0, 0.001125, 0.000125
100009, 0.002, 0.001125, 0.000125
100010, 0, 0.001375, 0.000125
100011, 0.002, 0.001375, 0.000125
100012, 0, 0.001625, 0.000125
100013, 0.002, 0.001625, 0.000125
100014, 0, 0.001875, 0.000125
100015, 0.002, 0.001875, 0.000125
100016, 0.000125, 0, 0.000375
100017, 0.000125, 0.002, 0.000375
100018, 0.000375, 0, 0.000375
100019, 0.000375, 0.002, 0.000375
100020, 0.000625, 0, 0.000375
100021, 0.000625, 0.002, 0.000375
100022, 0.000875, 0, 0.000375
100023, 0.000875, 0.002, 0.000375
100024, 0.001125, 0, 0.000375
100025, 0.001125, 0.002, 0.000375
100026, 0.001375, 0, 0.000375
100027, 0.001375, 0.002, 0.000375
100028, 0.001625, 0, 0.000375
100029, 0.001625, 0.002, 0.000375
100030, 0.001875, 0, 0.000375
100031, 0.001875, 0.002, 0.000375
100032, 0, 0.000125, 0.000625
100033, 0.002, 0.000125, 0.000625
100034, 0, 0.000375, 0.000625
100035, 0.002, 0.000375, 0.000625
100036, 0, 0.000625, 0.000625
100037, 0.002, 0.000625, 0.000625
100038, 0, 0.000875, 0.000625
100039, 0.002, 0.000875, 0.000625
100040, 0, 0.001125, 0.000625
100041, 0.002, 0.001125, 0.000625
100042, 0, 0.001375, 0.000625
100043, 0.002, 0.001375, 0.000625
100044, 0, 0.001625, 0.000625
100045, 0.002, 0.001625, 0.000625
100046, 0, 0.001875, 0.000625
100047, 0.002, 0.001875, 0.000625
100048, 0.000125, 0, 0.000875
100049, 0.000125, 0.002, 0.000875
100050, 0.000375, 0, 0.000875
100051, 0.000375, 0.002, 0.000875
100052, 0.000625, 0, 0.000875
100053, 0.000625, 0.002, 0.000875
100054, 0.000875, 0, 0.000875
100055, 0.000875, 0.002, 0.000875
100056, 0.001125, 0, 0.000875
100057, 0.001125, 0.002, 0.000875
100058, 0.001375, 0, 0.000875
100059, 0.001375, 0.002, 0.000875
100060, 0.001625, 0, 0.000875
100061, 0.001625, 0.002, 0.000875
100062, 0.001875, 0, 0.000875
100063, 0.001875, 0.002, 0.000875
*Element, type=T3D2, elset=EMBMESH_FIBERS_T0
100000, 100000,100001
100001, 100002,100003
100002, 100004,100005
100003, 100006,100007
100004, 100008,100009
100005, 100010,100011
100006, 100012,100013
100007, 100014,100015
100016, 100032,100033
100017, 100034,100035
100018, 100036,100037
100019, 100038,100039
100020, 100040,100041
100021, 100042,100043
100022, 100044,100045
100023, 100046,100047
*Element, type=T3D2, elset=EMBMESH_FIBERS_T90
100008, 100016,100017
100009, 100018,100019
100010, 100020,100021
100011, 100022,100023
100012, 100024,100025
100013, 100026,100027
100014, 100028,100029
100015, 100030,100031
100024, 100048,100049
100025, 100050,100051
100026, 100052,100053
100027, 100054,100055
100028, 100056,100057
100029, 100058,100059
100030, 100060,100061
100031, 100062,100063
*Solid Section, elset=EMBMESH_FIBERS_T0, material=EMBMESH_FIBER
4.90873852123405e-08
*Solid Section, elset=EMBMESH_FIBERS_T90, material=EMBMESH_FIBER
4.90873852123405e-08
*End Part
*Assembly, name=Assembly
*Instance, name=PLATE-1, part=PLATE
*End Instance
*Instance, name=EMBFIB-1, part=EMBFIB
*End Instance
*Embedded Element, host elset=PLATE-1.HOST
EMBFIB-1.EMBMESH_FIBERS_T0
EMBFIB-1.EMBMESH_FIBERS_T90
*End Assembly
*Material, name=EMBMESH_FIBER
*Elastic
1, 0.3
