*Heading
** verification deck t13_cube_3.inp
*Part, name=PLATE
*Node
1, 0, 0, 0
2, 1, 0, 0
3, 2, 0, 0
4, 3, 0, 0
5, 0, 1, 0
6, 1, 1, 0
7, 2, 1, 0
8, 3, 1, 0
9, 0, 2, 0
10, 1, 2, 0
11, 2, 2, 0
12, 3, 2, 0
13, 0, 3, 0
14, 1, 3, 0
15, 2, 3, 0
16, 3, 3, 0
17, 0, 0, 1
18, 1, 0, 1
19, 2, 0, 1
20, 3, 0, 1
21, 0, 1, 1
22, 1, 1, 1
23, 2, 1, 1
24, 3, 1, 1
25, 0, 2, 1
26, 1, 2, 1
27, 2, 2, 1
28, 3, 2, 1
29, 0, 3, 1
30, 1, 3, 1
31, 2, 3, 1
32, 3, 3, 1
33, 0, 0, 2
34, 1, 0, 2
35, 2, 0, 2
36, 3, 0, 2
37, 0, 1, 2
38, 1, 1, 2
39, 2, 1, 2
40, 3, 1, 2
41, 0, 2, 2
42, 1, 2, 2
43, 2, 2, 2
44, 3, 2, 2
45, 0, 3, 2
46, 1, 3, 2
47, 2, 3, 2
48, 3, 3, 2
49, 0, 0, 3
50, 1, 0, 3
51, 2, 0, 3
52, 3, 0, 3
53, 0, 1, 3
54, 1, 1, 3
55, 2, 1, 3
56, 3, 1, 3
57, 0, 2, 3
58, 1, 2, 3
59, 2, 2, 3
60, 3, 2, 3
61, 0, 3, 3
62, 1, 3, 3
63, 2, 3, 3
64, 3, 3, 3
*Element, type=C3D8R, elset=HOST
1, 1, 2, 6, 5, 17, 18, 22, 21
2, 2, 3, 7, 6, 18, 19, 23, 22
3, 3, 4, 8, 7, 19, 20, 24, 23
4, 5, 6, 10, 9, 21, 22, 26, 25
5, 6, 7, 11, 10, 22, 23, 27, 26
6, 7, 8, 12, 11, 23, 24, 28, 27
7, 9, 10, 14, 13, 25, 26, 30, 29
8, 10, 11, 15, 14, 26, 27, 31, 30
9, 11, 12, 16, 15, 27, 28, 32, 31
10, 17, 18, 22, 21, 33, 34, 38, 37
11, 18, 19, 23, 22, 34, 35, 39, 38
12, 19, 20, 24, 23, 35, 36, 40, 39
13, 21, 22, 26, 25, 37, 38, 42, 41
14, 22, 23, 27, 26, 38, 39, 43, 42
15, 23, 24, 28, 27, 39, 40, 44, 43
16, 25, 26, 30, 29, 41, 42, 46, 45
17, 26, 27, 31, 30, 42, 43, 47, 46
18, 27, 28, 32, 31, 43, 44, 48, 47
19, 33, 34, 38, 37, 49, 50, 54, 53
20, 34, 35, 39, 38, 50, 51, 55, 54
21, 35, 36, 40, 39, 51, 52, 56, 55
22, 37, 38, 42, 41, 53, 54, 58, 57
23, 38, 39, 43, 42, 54, 55, 59, 58
24, 39, 40, 44, 43, 55, 56, 60, 59
25, 41, 42, 46, 45, 57, 58, 62, 61
26, 42, 43, 47, 46, 58, 59, 63, 62
27, 43, 44, 48, 47, 59, 60, 64, 63
*End Part
*Assembly, name=Assembly
*Instance, name=PLATE-1, part=PLATE
*End Instance
*End Assembly
** embmesh generated fibers
*Node, nset=EMBMESH_NODES
100000, 0, 4.28786796564, 1.5
100001, 3, 4.28786796564, 1.5
100002, 0, 4.07573593129, 1.71213203436
100003, 3, 4.07573593129, 1.71213203436
100004, 0, 3.86360389693, 1.92426406871
100005, 3, 3.86360389693, 1.92426406871
100006, 0, 3.65147186258, 2.13639610307
100007, 3, 3.65147186258, 2.13639610307
100008, 0, 3.43933982822, 2.34852813742
100009, 3, 3.43933982822, 2.34852813742
100010, 0, 3.22720779386, 2.56066017178
100011, 3, 3.22720779386, 2.56066017178
100012, 0, 3.01507575951, 2.77279220614
100013, 3, 3.01507575951, 2.77279220614
100014, 0, 2.80294372515, 2.98492424049
100015, 3, 2.80294372515, 2.98492424049
100016, 0, 2.5908116908, 3.19705627485
100017, 3, 2.5908116908, 3.19705627485
100018, 0, 2.37867965644, 3.4091883092
100019, 3, 2.37867965644, 3.4091883092
100020, 0, 2.16654762208, 3.62132034356
100021, 3, 2.16654762208, 3.62132034356
100022, 0, 1.95441558773, 3.83345237792
100023, 3, 1.95441558773, 3.83345237792
100024, 0, 1.74228355337, 4.04558441227
100025, 3, 1.74228355337, 4.04558441227
100026, 0, 1.53015151902, 4.25771644663
100027, 3, 1.53015151902, 4.25771644663
100028, 0.15, 4.18180194847, 1.18180194847
100029, 0.15, 1.18180194847, 4.18180194847
100030, 0.45, 4.18180194847, 1.18180194847
100031, 0.45, 1.18180194847, 4.18180194847
100032, 0.75, 4.18180194847, 1.18180194847
100033, 0.75, 1.18180194847, 4.18180194847
100034, 1.05, 4.18180194847, 1.18180194847
100035, 1.05, 1.18180194847, 4.18180194847
100036, 1.35, 4.18180194847, 1.18180194847
100037, 1.35, 1.18180194847, 4.18180194847
100038, 1.65, 4.18180194847, 1.18180194847
100039, 1.65, 1.18180194847, 4.18180194847
100040, 1.95, 4.18180194847, 1.18180194847
100041, 1.95, 1.18180194847, 4.18180194847
100042, 2.25, 4.18180194847, 1.18180194847
100043, 2.25, 1.18180194847, 4.18180194847
100044, 2.55, 4.18180194847, 1.18180194847
100045, 2.55, 1.18180194847, 4.18180194847
100046, 2.85, 4.18180194847, 1.18180194847
100047, 2.85, 1.18180194847, 4.18180194847
100048, 0, 3.86360389693, 1.07573593129
100049, 3, 3.86360389693, 1.07573593129
100050, 0, 3.65147186258, 1.28786796564
100051, 3, 3.65147186258, 1.28786796564
100052, 0, 3.43933982822, 1.5
100053, 3, 3.43933982822, 1.5
100054, 0, 3.22720779386, 1.71213203436
100055, 3, 3.22720779386, 1.71213203436
100056, 0, 3.01507575951, 1.92426406871
100057, 3, 3.01507575951, 1.92426406871
100058, 0, 2.80294372515, 2.13639610307
100059, 3, 2.80294372515, 2.13639610307
100060, 0, 2.5908116908, 2.34852813742
100061, 3, 2.5908116908, 2.34852813742
100062, 0, 2.37867965644, 2.56066017178
100063, 3, 2.37867965644, 2.56066017178
100064, 0, 2.16654762208, 2.77279220614
100065, 3, 2.16654762208, 2.77279220614
100066, 0, 1.95441558773, 2.98492424049
100067, 3, 1.95441558773, 2.98492424049
100068, 0, 1.74228355337, 3.19705627485
100069, 3, 1.74228355337, 3.19705627485
100070, 0, 1.53015151902, 3.4091883092
100071, 3, 1.53015151902, 3.4091883092
100072, 0, 1.31801948466, 3.62132034356
100073, 3, 1.31801948466, 3.62132034356
100074, 0, 1.1058874503, 3.83345237792
100075, 3, 1.1058874503, 3.83345237792
100076, 0.15, 3.75753787975, 0.757537879754
100077, 0.15, 0.757537879754, 3.75753787975
100078, 0.45, 3.75753787975, 0.757537879754
100079, 0.45, 0.757537879754, 3.75753787975
100080, 0.75, 3.75753787975, 0.757537879754
100081, 0.75, 0.757537879754, 3.75753787975
100082, 1.05, 3.75753787975, 0.757537879754
100083, 1.05, 0.757537879754, 3.75753787975
100084, 1.35, 3.75753787975, 0.757537879754
100085, 1.35, 0.757537879754, 3.75753787975
100086, 1.65, 3.75753787975, 0.757537879754
100087, 1.65, 0.757537879754, 3.75753787975
100088, 1.95, 3.75753787975, 0.757537879754
100089, 1.95, 0.757537879754, 3.75753787975
100090, 2.25, 3.75753787975, 0.757537879754
100091, 2.25, 0.757537879754, 3.75753787975
100092, 2.55, 3.75753787975, 0.757537879754
100093, 2.55, 0.757537879754, 3.75753787975
100094, 2.85, 3.75753787975, 0.757537879754
100095, 2.85, 0.757537879754, 3.75753787975
100096, 0, 3.43933982822, 0.651471862576
100097, 3, 3.43933982822, 0.651471862576
100098, 0, 3.22720779386, 0.863603896932
100099, 3, 3.22720779386, 0.863603896932
100100, 0, 3.01507575951, 1.07573593129
100101, 3, 3.01507575951, 1.07573593129
100102, 0, 2.80294372515, 1.28786796564
100103, 3, 2.80294372515, 1.28786796564
100104, 0, 2.5908116908, 1.5
100105, 3, 2.5908116908, 1.5
100106, 0, 2.37867965644, 1.71213203436
100107, 3, 2.37867965644, 1.71213203436
100108, 0, 2.16654762208, 1.92426406871
100109, 3, 2.16654762208, 1.92426406871
100110, 0, 1.95441558773, 2.13639610307
100111, 3, 1.95441558773, 2.13639610307
100112, 0, 1.74228355337, 2.34852813742
100113, 3, 1.74228355337, 2.34852813742
100114, 0, 1.53015151902, 2.56066017178
100115, 3, 1.53015151902, 2.56066017178
100116, 0, 1.31801948466, 2.77279220614
100117, 3, 1.31801948466, 2.77279220614
100118, 0, 1.1058874503, 2.98492424049
100119, 3, 1.1058874503, 2.98492424049
100120, 0, 0.893755415949, 3.19705627485
100121, 3, 0.893755415949, 3.19705627485
100122, 0, 0.681623381593, 3.4091883092
100123, 3, 0.681623381593, 3.4091883092
100124, 0.15, 3.33327381104, 0.333273811042
100125, 0.15, 0.333273811042, 3.33327381104
100126, 0.45, 3.33327381104, 0.333273811042
100127, 0.45, 0.333273811042, 3.33327381104
100128, 0.75, 3.33327381104, 0.333273811042
100129, 0.75, 0.333273811042, 3.33327381104
100130, 1.05, 3.33327381104, 0.333273811042
100131, 1.05, 0.333273811042, 3.33327381104
100132, 1.35, 3.33327381104, 0.333273811042
100133, 1.35, 0.333273811042, 3.33327381104
100134, 1.65, 3.33327381104, 0.333273811042
100135, 1.65, 0.333273811042, 3.33327381104
100136, 1.95, 3.33327381104, 0.333273811042
100137, 1.95, 0.333273811042, 3.33327381104
100138, 2.25, 3.33327381104, 0.333273811042
100139, 2.25, 0.333273811042, 3.33327381104
100140, 2.55, 3.33327381104, 0.333273811042
100141, 2.55, 0.333273811042, 3.33327381104
100142, 2.85, 3.33327381104, 0.333273811042
100143, 2.85, 0.333273811042, 3.33327381104
100144, 0, 3.01507575951, 0.227207793864
100145, 3, 3.01507575951, 0.227207793864
100146, 0, 2.80294372515, 0.43933982822
100147, 3, 2.80294372515, 0.43933982822
100148, 0, 2.5908116908, 0.651471862576
100149, 3, 2.5908116908, 0.651471862576
100150, 0, 2.37867965644, 0.863603896932
100151, 3, 2.37867965644, 0.863603896932
100152, 0, 2.16654762208, 1.07573593129
100153, 3, 2.16654762208, 1.07573593129
100154, 0, 1.95441558773, 1.28786796564
100155, 3, 1.95441558773, 1.28786796564
100156, 0, 1.74228355337, 1.5
100157, 3, 1.74228355337, 1.5
100158, 0, 1.53015151902, 1.71213203436
100159, 3, 1.53015151902, 1.71213203436
100160, 0, 1.31801948466, 1.92426406871
100161, 3, 1.31801948466, 1.92426406871
100162, 0, 1.1058874503, 2.13639610307
100163, 3, 1.1058874503, 2.13639610307
100164, 0, 0.893755415949, 2.34852813742
100165, 3, 0.893755415949, 2.34852813742
100166, 0, 0.681623381593, 2.56066017178
100167, 3, 0.681623381593, 2.56066017178
100168, 0, 0.469491347237, 2.77279220614
100169, 3, 0.469491347237, 2.77279220614
100170, 0, 0.257359312881, 2.98492424049
100171, 3, 0.257359312881, 2.98492424049
100172, 0.15, 2.90900974233, -0.0909902576697
100173, 0.15, -0.0909902576697, 2.90900974233
100174, 0.45, 2.90900974233, -0.0909902576697
100175, 0.45, -0.0909902576697, 2.90900974233
100176, 0.75, 2.90900974233, -0.0909902576697
100177, 0.75, -0.0909902576697, 2.90900974233
100178, 1.05, 2.90900974233, -0.0909902576697
100179, 1.05, -0.0909902576697, 2.90900974233
100180, 1.35, 2.90900974233, -0.0909902576697
100181, 1.35, -0.0909902576697, 2.90900974233
100182, 1.65, 2.90900974233, -0.0909902576697
100183, 1.65, -0.0909902576697, 2.90900974233
100184, 1.95, 2.90900974233, -0.0909902576697
100185, 1.95, -0.0909902576697, 2.90900974233
100186, 2.25, 2.90900974233, -0.0909902576697
100187, 2.25, -0.0909902576697, 2.90900974233
100188, 2.55, 2.90900974233, -0.0909902576697
100189, 2.55, -0.0909902576697, 2.90900974233
100190, 2.85, 2.90900974233, -0.0909902576697
100191, 2.85, -0.0909902576697, 2.90900974233
100192, 0, 2.5908116908, -0.197056274848
100193, 3, 2.5908116908, -0.197056274848
100194, 0, 2.37867965644, 0.0150757595083
100195, 3, 2.37867965644, 0.0150757595083
100196, 0, 2.16654762208, 0.227207793864
100197, 3, 2.16654762208, 0.227207793864
100198, 0, 1.95441558773, 0.43933982822
100199, 3, 1.95441558773, 0.43933982822
100200, 0, 1.74228355337, 0.651471862576
100201, 3, 1.74228355337, 0.651471862576
100202, 0, 1.53015151902, 0.863603896932
100203, 3, 1.53015151902, 0.863603896932
100204, 0, 1.31801948466, 1.07573593129
100205, 3, 1.31801948466, 1.07573593129
100206, 0, 1.1058874503, 1.28786796564
100207, 3, 1.1058874503, 1.28786796564
100208, 0, 0.893755415949, 1.5
100209, 3, 0.893755415949, 1.5
100210, 0, 0.681623381593, 1.71213203436
100211, 3, 0.681623381593, 1.71213203436
100212, 0, 0.469491347237, 1.92426406871
100213, 3, 0.469491347237, 1.92426406871
100214, 0, 0.257359312881, 2.13639610307
100215, 3, 0.257359312881, 2.13639610307
100216, 0, 0.0452272785248, 2.34852813742
100217, 3, 0.0452272785248, 2.34852813742
100218, 0, -0.166904755831, 2.56066017178
100219, 3, -0.166904755831, 2.56066017178
100220, 0.15, 2.48474567362, -0.515254326382
100221, 0.15, -0.515254326382, 2.48474567362
100222, 0.45, 2.48474567362, -0.515254326382
100223, 0.45, -0.515254326382, 2.48474567362
100224, 0.75, 2.48474567362, -0.515254326382
100225, 0.75, -0.515254326382, 2.48474567362
100226, 1.05, 2.48474567362, -0.515254326382
100227, 1.05, -0.515254326382, 2.48474567362
100228, 1.35, 2.48474567362, -0.515254326382
100229, 1.35, -0.515254326382, 2.48474567362
100230, 1.65, 2.48474567362, -0.515254326382
100231, 1.65, -0.515254326382, 2.48474567362
100232, 1.95, 2.48474567362, -0.515254326382
100233, 1.95, -0.515254326382, 2.48474567362
100234, 2.25, 2.48474567362, -0.515254326382
100235, 2.25, -0.515254326382, 2.48474567362
100236, 2.55, 2.48474567362, -0.515254326382
100237, 2.55, -0.515254326382, 2.48474567362
100238, 2.85, 2.48474567362, -0.515254326382
100239, 2.85, -0.515254326382, 2.48474567362
100240, 0, 2.16654762208, -0.62132034356
100241, 3, 2.16654762208, -0.62132034356
100242, 0, 1.95441558773, -0.409188309204
100243, 3, 1.95441558773, -0.409188309204
100244, 0, 1.74228355337, -0.197056274848
100245, 3, 1.74228355337, -0.197056274848
100246, 0, 1.53015151902, 0.0150757595083
100247, 3, 1.53015151902, 0.0150757595083
100248, 0, 1.31801948466, 0.227207793864
100249, 3, 1.31801948466, 0.227207793864
100250, 0, 1.1058874503, 0.43933982822
100251, 3, 1.1058874503, 0.43933982822
100252, 0, 0.893755415949, 0.651471862576
100253, 3, 0.893755415949, 0.651471862576
100254, 0, 0.681623381593, 0.863603896932
100255, 3, 0.681623381593, 0.863603896932
100256, 0, 0.469491347237, 1.07573593129
100257, 3, 0.469491347237, 1.07573593129
100258, 0, 0.257359312881, 1.28786796564
100259, 3, 0.257359312881, 1.28786796564
100260, 0, 0.0452272785248, 1.5
100261, 3, 0.0452272785248, 1.5
100262, 0, -0.166904755831, 1.71213203436
100263, 3, -0.166904755831, 1.71213203436
100264, 0, -0.379036790187, 1.92426406871
100265, 3, -0.379036790187, 1.92426406871
100266, 0, -0.591168824543, 2.13639610307
100267, 3, -0.591168824543, 2.13639610307
100268, 0.15, 2.06048160491, -0.939518395094
100269, 0.15, -0.939518395094, 2.06048160491
100270, 0.45, 2.06048160491, -0.939518395094
100271, 0.45, -0.939518395094, 2.06048160491
100272, 0.75, 2.06048160491, -0.939518395094
100273, 0.75, -0.939518395094, 2.06048160491
100274, 1.05, 2.06048160491, -0.939518395094
100275, 1.05, -0.939518395094, 2.06048160491
100276, 1.35, 2.06048160491, -0.939518395094
100277, 1.35, -0.939518395094, 2.06048160491
100278, 1.65, 2.06048160491, -0.939518395094
100279, 1.65, -0.939518395094, 2.06048160491
100280, 1.95, 2.06048160491, -0.939518395094
100281, 1.95, -0.939518395094, 2.06048160491
100282, 2.25, 2.06048160491, -0.939518395094
100283, 2.25, -0.939518395094, 2.06048160491
100284, 2.55, 2.06048160491, -0.939518395094
100285, 2.55, -0.939518395094, 2.06048160491
100286, 2.85, 2.06048160491, -0.939518395094
100287, 2.85, -0.939518395094, 2.06048160491
100288, 0, 1.74228355337, -1.04558441227
100289, 3, 1.74228355337, -1.04558441227
100290, 0, 1.53015151902, -0.833452377916
100291, 3, 1.53015151902, -0.833452377916
100292, 0, 1.31801948466, -0.62132034356
100293, 3, 1.31801948466, -0.62132034356
100294, 0, 1.1058874503, -0.409188309204
100295, 3, 1.1058874503, -0.409188309204
100296, 0, 0.893755415949, -0.197056274848
100297, 3, 0.893755415949, -0.197056274848
100298, 0, 0.681623381593, 0.0150757595083
100299, 3, 0.681623381593, 0.0150757595083
100300, 0, 0.469491347237, 0.227207793864
100301, 3, 0.469491347237, 0.227207793864
100302, 0, 0.257359312881, 0.43933982822
100303, 3, 0.257359312881, 0.43933982822
100304, 0, 0.0452272785248, 0.651471862576
100305, 3, 0.0452272785248, 0.651471862576
100306, 0, -0.166904755831, 0.863603896932
100307, 3, -0.166904755831, 0.863603896932
100308, 0, -0.379036790187, 1.07573593129
100309, 3, -0.379036790187, 1.07573593129
100310, 0, -0.591168824543, 1.28786796564
100311, 3, -0.591168824543, 1.28786796564
100312, 0, -0.803300858899, 1.5
100313, 3, -0.803300858899, 1.5
100314, 0, -1.01543289326, 1.71213203436
100315, 3, -1.01543289326, 1.71213203436
100316, 0.15, 1.63621753619, -1.36378246381
100317, 0.15, -1.36378246381, 1.63621753619
100318, 0.45, 1.63621753619, -1.36378246381
100319, 0.45, -1.36378246381, 1.63621753619
100320, 0.75, 1.63621753619, -1.36378246381
100321, 0.75, -1.36378246381, 1.63621753619
100322, 1.05, 1.63621753619, -1.36378246381
100323, 1.05, -1.36378246381, 1.63621753619
100324, 1.35, 1.63621753619, -1.36378246381
100325, 1.35, -1.36378246381, 1.63621753619
100326, 1.65, 1.63621753619, -1.36378246381
100327, 1.65, -1.36378246381, 1.63621753619
100328, 1.95, 1.63621753619, -1.36378246381
100329, 1.95, -1.36378246381, 1.63621753619
100330, 2.25, 1.63621753619, -1.36378246381
100331, 2.25, -1.36378246381, 1.63621753619
100332, 2.55, 1.63621753619, -1.36378246381
100333, 2.55, -1.36378246381, 1.63621753619
100334, 2.85, 1.63621753619, -1.36378246381
100335, 2.85, -1.36378246381, 1.63621753619
*Element, type=T3D2, elset=EMBMESH_FIBERS
100000, 100000,100001
100001, 100002,100003
100002, 100004,100005
100003, 100006,100007
100004, 100008,100009
100005, 100010,100011
100006, 100012,100013
100007, 100014,100015
100008, 100016,100017
100009, 100018,100019
100010, 100020,100021
100011, 100022,100023
100012, 100024,100025
100013, 100026,100027
100014, 100028,100029
100015, 100030,100031
100016, 100032,100033
100017, 100034,100035
100018, 100036,100037
100019, 100038,100039
100020, 100040,100041
100021, 100042,100043
100022, 100044,100045
100023, 100046,100047
100024, 100048,100049
100025, 100050,100051
100026, 100052,100053
100027, 100054,100055
100028, 100056,100057
100029, 100058,100059
100030, 100060,100061
100031, 100062,100063
100032, 100064,100065
100033, 100066,100067
100034, 100068,100069
100035, 100070,100071
100036, 100072,100073
100037, 100074,100075
100038, 100076,100077
100039, 100078,100079
100040, 100080,100081
100041, 100082,100083
100042, 100084,100085
100043, 100086,100087
100044, 100088,100089
100045, 100090,100091
100046, 100092,100093
100047, 100094,100095
100048, 100096,100097
100049, 100098,100099
100050, 100100,100101
100051, 100102,100103
100052, 100104,100105
100053, 100106,100107
100054, 100108,100109
100055, 100110,100111
100056, 100112,100113
100057, 100114,100115
100058, 100116,100117
100059, 100118,100119
100060, 100120,100121
100061, 100122,100123
100062, 100124,100125
100063, 100126,100127
100064, 100128,100129
100065, 100130,100131
100066, 100132,100133
100067, 100134,100135
100068, 100136,100137
100069, 100138,100139
100070, 100140,100141
100071, 100142,100143
100072, 100144,100145
100073, 100146,100147
100074, 100148,100149
100075, 100150,100151
100076, 100152,100153
100077, 100154,100155
100078, 100156,100157
100079, 100158,100159
100080, 100160,100161
100081, 100162,100163
100082, 100164,100165
100083, 100166,100167
100084, 100168,100169
100085, 100170,100171
100086, 100172,100173
100087, 100174,100175
100088, 100176,100177
100089, 100178,100179
100090, 100180,100181
100091, 100182,100183
100092, 100184,100185
100093, 100186,100187
100094, 100188,100189
100095, 100190,100191
100096, 100192,100193
100097, 100194,100195
100098, 100196,100197
100099, 100198,100199
100100, 100200,100201
100101, 100202,100203
100102, 100204,100205
100103, 100206,100207
100104, 100208,100209
100105, 100210,100211
100106, 100212,100213
100107, 100214,100215
100108, 100216,100217
100109, 100218,100219
100110, 100220,100221
100111, 100222,100223
100112, 100224,100225
100113, 100226,100227
100114, 100228,100229
100115, 100230,100231
100116, 100232,100233
100117, 100234,100235
100118, 100236,100237
100119, 100238,100239
100120, 100240,100241
100121, 100242,100243
100122, 100244,100245
100123, 100246,100247
100124, 100248,100249
100125, 100250,100251
100126, 100252,100253
100127, 100254,100255
100128, 100256,100257
100129, 100258,100259
100130, 100260,100261
100131, 100262,100263
100132, 100264,100265
100133, 100266,100267
100134, 100268,100269
100135, 100270,100271
100136, 100272,100273
100137, 100274,100275
100138, 100276,100277
100139, 100278,100279
100140, 100280,100281
100141, 100282,100283
100142, 100284,100285
100143, 100286,100287
100144, 100288,100289
100145, 100290,100291
100146, 100292,100293
100147, 100294,100295
100148, 100296,100297
100149, 100298,100299
100150, 100300,100301
100151, 100302,100303
100152, 100304,100305
100153, 100306,100307
100154, 100308,100309
100155, 100310,100311
100156, 100312,100313
100157, 100314,100315
100158, 100316,100317
100159, 100318,100319
100160, 100320,100321
100161, 100322,100323
100162, 100324,100325
100163, 100326,100327
100164, 100328,100329
100165, 100330,100331
100166, 100332,100333
100167, 100334,100335
*Solid Section, elset=EMBMESH_FIBERS, material=EMBMESH_FIBER
0.0706858347057703
*Material, name=EMBMESH_FIBER
*Elastic
1., 0.3
*Embedded Element, host elset=HOST
EMBMESH_FIBERS
