*Heading
** T4: 1-element (VUEL host) / 4-fiber (VUMAT truss+beam) interaction smoke test
** units: SI (m, kg, s, Pa); see verification/make_t4.py for how this was generated
*Preprint, echo=NO, model=YES, history=NO, contact=NO
*Part, name=CELL
*Node
1, 0, 0, 0
2, 1, 0, 0
3, 1, 1, 0
4, 0, 1, 0
5, 0, 0, 1
6, 1, 0, 1
7, 1, 1, 1
8, 0, 1, 1
*User Element, type=VU1, nodes=8, coordinates=3, properties=6, variables=48
1, 2, 3
*Element, type=VU1, elset=HOSTUEL
1, 1, 2, 3, 4, 5, 6, 7, 8
*UEL Property, elset=HOSTUEL
2e+11, 0.3, 7800, 0, 0.06, 1.2
*Element, type=T3D2, elset=TRUSSFIBERS
101, 1, 2
102, 1, 7
*Solid Section, elset=TRUSSFIBERS, material=TRUSSFIBER
7.85398163397e-05
*Element, type=B31, elset=BEAMFIBER_A
201, 4, 8
*Beam Section, elset=BEAMFIBER_A, material=BEAMFIBER, section=CIRC
0.005
1, 0, 0
*Element, type=B31, elset=BEAMFIBER_B
202, 2, 8
*Beam Section, elset=BEAMFIBER_B, material=BEAMFIBER, section=CIRC
0.005
0.707106781187, 0.707106781187, 0
*End Part
*Assembly, name=Assembly
*Instance, name=CELL-1, part=CELL
*End Instance
*Nset, nset=FIXED, instance=CELL-1
1
*Nset, nset=DRIVEN, instance=CELL-1
2, 3, 6, 7
*Nset, nset=ALLN, instance=CELL-1
1, 2, 3, 4, 5, 6, 7, 8
*End Assembly
*Material, name=TRUSSFIBER
*Density
1800,
*Depvar, delete=1
1
*User Material, constants=2
1e+11, 2e+09
*Material, name=BEAMFIBER
*Density
1800,
*Depvar, delete=1
1
*User Material, constants=3
1e+11, 5e+10, 2e+09
*Amplitude, name=RAMP, definition=SMOOTH STEP
0., 0., 0.01, 1.
*Step, name=S1
*Dynamic, Explicit
, 0.01
*Boundary
FIXED, 1, 3
CELL-1.4, 2, 3
CELL-1.5, 1, 3
CELL-1.8, 2, 2
*Boundary, amplitude=RAMP
DRIVEN, 1, 1, 0.001
*Output, history, frequency=1000000
*Node Output, nset=ALLN
RF1, RF2, RF3, U1, U2, U3
*Output, field, number interval=5
*Node Output
U, RF
*Element Output, directions=YES
S, E
*Output, history, time interval=0.0002
*Energy Output
ALLIE, ALLKE, ALLWK, ALLVD, ALLAE, ETOTAL
*End Step
