*Heading
** verification deck t13_skew.inp
*Part, name=PLATE
*Node
1, 0, 0, 0
2, 1, 0, 0
3, 2, 0, 0
4, 3, 0, 0
5, 0, 1, 0
6, 1, 1, 0
7, 2, 1, 0
8, 3, 1, 0
9, 0, 2, 0
10, 1, 2, 0
11, 2, 2, 0
12, 3, 2, 0
13, 0, 3, 0
14, 1, 3, 0
15, 2, 3, 0
16, 3, 3, 0
17, 0.2, 0, 1
18, 1.2, 0, 1
19, 2.2, 0, 1
20, 3.2, 0, 1
21, 0.2, 1, 1
22, 1.26488373768, 1.14299696835, 1.09924684849
23, 2.12797043647, 0.928059862568, 1.13447924034
24, 3.2, 1, 1
25, 0.2, 2, 1
26, 1.04328450851, 2.11564223062, 1.10694499435
27, 2.17250322709, 1.92909167365, 0.920233220356
28, 3.2, 2, 1
29, 0.2, 3, 1
30, 1.2, 3, 1
31, 2.2, 3, 1
32, 3.2, 3, 1
33, 0.4, 0, 2
34, 1.4, 0, 2
35, 2.4, 0, 2
36, 3.4, 0, 2
37, 0.4, 1, 2
38, 1.4, 1, 2
39, 2.4, 1, 2
40, 3.4, 1, 2
41, 0.4, 2, 2
42, 1.4, 2, 2
43, 2.4, 2, 2
44, 3.4, 2, 2
45, 0.4, 3, 2
46, 1.4, 3, 2
47, 2.4, 3, 2
48, 3.4, 3, 2
*Element, type=C3D8R, elset=HOST
1, 1, 2, 6, 5, 17, 18, 22, 21
2, 2, 3, 7, 6, 18, 19, 23, 22
3, 3, 4, 8, 7, 19, 20, 24, 23
4, 5, 6, 10, 9, 21, 22, 26, 25
5, 6, 7, 11, 10, 22, 23, 27, 26
6, 7, 8, 12, 11, 23, 24, 28, 27
7, 9, 10, 14, 13, 25, 26, 30, 29
8, 10, 11, 15, 14, 26, 27, 31, 30
9, 11, 12, 16, 15, 27, 28, 32, 31
10, 17, 18, 22, 21, 33, 34, 38, 37
11, 18, 19, 23, 22, 34, 35, 39, 38
12, 19, 20, 24, 23, 35, 36, 40, 39
13, 21, 22, 26, 25, 37, 38, 42, 41
14, 22, 23, 27, 26, 38, 39, 43, 42
15, 23, 24, 28, 27, 39, 40, 44, 43
16, 25, 26, 30, 29, 41, 42, 46, 45
17, 26, 27, 31, 30, 42, 43, 47, 46
18, 27, 28, 32, 31, 43, 44, 48, 47
*End Part
*Part, name=EMBFIB
*Node, nset=EMBMESH_NODES
100000, 0, 0.1, 0.1
100001, 3.4, 0.1, 0.1
100002, 0, 0.3, 0.1
100003, 3.4, 0.3, 0.1
100004, 0, 0.5, 0.1
100005, 3.4, 0.5, 0.1
100006, 0, 0.7, 0.1
100007, 3.4, 0.7, 0.1
100008, 0, 0.9, 0.1
100009, 3.4, 0.9, 0.1
100010, 0, 1.1, 0.1
100011, 3.4, 1.1, 0.1
100012, 0, 1.3, 0.1
100013, 3.4, 1.3, 0.1
100014, 0, 1.5, 0.1
100015, 3.4, 1.5, 0.1
100016, 0, 1.7, 0.1
100017, 3.4, 1.7, 0.1
100018, 0, 1.9, 0.1
100019, 3.4, 1.9, 0.1
100020, 0, 2.1, 0.1
100021, 3.4, 2.1, 0.1
100022, 0, 2.3, 0.1
100023, 3.4, 2.3, 0.1
100024, 0, 2.5, 0.1
100025, 3.4, 2.5, 0.1
100026, 0, 2.7, 0.1
100027, 3.4, 2.7, 0.1
100028, 0, 2.9, 0.1
100029, 3.4, 2.9, 0.1
100030, 0.1, 0, 0.3
100031, 0.1, 3, 0.3
100032, 0.3, 0, 0.3
100033, 0.3, 3, 0.3
100034, 0.5, 0, 0.3
100035, 0.5, 3, 0.3
100036, 0.7, 0, 0.3
100037, 0.7, 3, 0.3
100038, 0.9, 0, 0.3
100039, 0.9, 3, 0.3
100040, 1.1, 0, 0.3
100041, 1.1, 3, 0.3
100042, 1.3, 0, 0.3
100043, 1.3, 3, 0.3
100044, 1.5, 0, 0.3
100045, 1.5, 3, 0.3
100046, 1.7, 0, 0.3
100047, 1.7, 3, 0.3
100048, 1.9, 0, 0.3
100049, 1.9, 3, 0.3
100050, 2.1, 0, 0.3
100051, 2.1, 3, 0.3
100052, 2.3, 0, 0.3
100053, 2.3, 3, 0.3
100054, 2.5, 0, 0.3
100055, 2.5, 3, 0.3
100056, 2.7, 0, 0.3
100057, 2.7, 3, 0.3
100058, 2.9, 0, 0.3
100059, 2.9, 3, 0.3
100060, 3.1, 0, 0.3
100061, 3.1, 3, 0.3
100062, 3.3, 0, 0.3
100063, 3.3, 3, 0.3
100064, 0, 0.1, 0.5
100065, 3.4, 0.1, 0.5
100066, 0, 0.3, 0.5
100067, 3.4, 0.3, 0.5
100068, 0, 0.5, 0.5
100069, 3.4, 0.5, 0.5
100070, 0, 0.7, 0.5
100071, 3.4, 0.7, 0.5
100072, 0, 0.9, 0.5
100073, 3.4, 0.9, 0.5
100074, 0, 1.1, 0.5
100075, 3.4, 1.1, 0.5
100076, 0, 1.3, 0.5
100077, 3.4, 1.3, 0.5
100078, 0, 1.5, 0.5
100079, 3.4, 1.5, 0.5
100080, 0, 1.7, 0.5
100081, 3.4, 1.7, 0.5
100082, 0, 1.9, 0.5
100083, 3.4, 1.9, 0.5
100084, 0, 2.1, 0.5
100085, 3.4, 2.1, 0.5
100086, 0, 2.3, 0.5
100087, 3.4, 2.3, 0.5
100088, 0, 2.5, 0.5
100089, 3.4, 2.5, 0.5
100090, 0, 2.7, 0.5
100091, 3.4, 2.7, 0.5
100092, 0, 2.9, 0.5
100093, 3.4, 2.9, 0.5
100094, 0.1, 0, 0.7
100095, 0.1, 3, 0.7
100096, 0.3, 0, 0.7
100097, 0.3, 3, 0.7
100098, 0.5, 0, 0.7
100099, 0.5, 3, 0.7
100100, 0.7, 0, 0.7
100101, 0.7, 3, 0.7
100102, 0.9, 0, 0.7
100103, 0.9, 3, 0.7
100104, 1.1, 0, 0.7
100105, 1.1, 3, 0.7
100106, 1.3, 0, 0.7
100107, 1.3, 3, 0.7
100108, 1.5, 0, 0.7
100109, 1.5, 3, 0.7
100110, 1.7, 0, 0.7
100111, 1.7, 3, 0.7
100112, 1.9, 0, 0.7
100113, 1.9, 3, 0.7
100114, 2.1, 0, 0.7
100115, 2.1, 3, 0.7
100116, 2.3, 0, 0.7
100117, 2.3, 3, 0.7
100118, 2.5, 0, 0.7
100119, 2.5, 3, 0.7
100120, 2.7, 0, 0.7
100121, 2.7, 3, 0.7
100122, 2.9, 0, 0.7
100123, 2.9, 3, 0.7
100124, 3.1, 0, 0.7
100125, 3.1, 3, 0.7
100126, 3.3, 0, 0.7
100127, 3.3, 3, 0.7
100128, 0, 0.1, 0.9
100129, 3.4, 0.1, 0.9
100130, 0, 0.3, 0.9
100131, 3.4, 0.3, 0.9
100132, 0, 0.5, 0.9
100133, 3.4, 0.5, 0.9
100134, 0, 0.7, 0.9
100135, 3.4, 0.7, 0.9
100136, 0, 0.9, 0.9
100137, 3.4, 0.9, 0.9
100138, 0, 1.1, 0.9
100139, 3.4, 1.1, 0.9
100140, 0, 1.3, 0.9
100141, 3.4, 1.3, 0.9
100142, 0, 1.5, 0.9
100143, 3.4, 1.5, 0.9
100144, 0, 1.7, 0.9
100145, 3.4, 1.7, 0.9
100146, 0, 1.9, 0.9
100147, 3.4, 1.9, 0.9
100148, 0, 2.1, 0.9
100149, 3.4, 2.1, 0.9
100150, 0, 2.3, 0.9
100151, 3.4, 2.3, 0.9
100152, 0, 2.5, 0.9
100153, 3.4, 2.5, 0.9
100154, 0, 2.7, 0.9
100155, 3.4, 2.7, 0.9
100156, 0, 2.9, 0.9
100157, 3.4, 2.9, 0.9
100158, 0.1, 0, 1.1
100159, 0.1, 3, 1.1
100160, 0.3, 0, 1.1
100161, 0.3, 3, 1.1
100162, 0.5, 0, 1.1
100163, 0.5, 3, 1.1
100164, 0.7, 0, 1.1
100165, 0.7, 3, 1.1
100166, 0.9, 0, 1.1
100167, 0.9, 3, 1.1
100168, 1.1, 0, 1.1
100169, 1.1, 3, 1.1
100170, 1.3, 0, 1.1
100171, 1.3, 3, 1.1
100172, 1.5, 0, 1.1
100173, 1.5, 3, 1.1
100174, 1.7, 0, 1.1
100175, 1.7, 3, 1.1
100176, 1.9, 0, 1.1
100177, 1.9, 3, 1.1
100178, 2.1, 0, 1.1
100179, 2.1, 3, 1.1
100180, 2.3, 0, 1.1
100181, 2.3, 3, 1.1
100182, 2.5, 0, 1.1
100183, 2.5, 3, 1.1
100184, 2.7, 0, 1.1
100185, 2.7, 3, 1.1
100186, 2.9, 0, 1.1
100187, 2.9, 3, 1.1
100188, 3.1, 0, 1.1
100189, 3.1, 3, 1.1
100190, 3.3, 0, 1.1
100191, 3.3, 3, 1.1
100192, 0, 0.1, 1.3
100193, 3.4, 0.1, 1.3
100194, 0, 0.3, 1.3
100195, 3.4, 0.3, 1.3
100196, 0, 0.5, 1.3
100197, 3.4, 0.5, 1.3
100198, 0, 0.7, 1.3
100199, 3.4, 0.7, 1.3
100200, 0, 0.9, 1.3
100201, 3.4, 0.9, 1.3
100202, 0, 1.1, 1.3
100203, 3.4, 1.1, 1.3
100204, 0, 1.3, 1.3
100205, 3.4, 1.3, 1.3
100206, 0, 1.5, 1.3
100207, 3.4, 1.5, 1.3
100208, 0, 1.7, 1.3
100209, 3.4, 1.7, 1.3
100210, 0, 1.9, 1.3
100211, 3.4, 1.9, 1.3
100212, 0, 2.1, 1.3
100213, 3.4, 2.1, 1.3
100214, 0, 2.3, 1.3
100215, 3.4, 2.3, 1.3
100216, 0, 2.5, 1.3
100217, 3.4, 2.5, 1.3
100218, 0, 2.7, 1.3
100219, 3.4, 2.7, 1.3
100220, 0, 2.9, 1.3
100221, 3.4, 2.9, 1.3
100222, 0.1, 0, 1.5
100223, 0.1, 3, 1.5
100224, 0.3, 0, 1.5
100225, 0.3, 3, 1.5
100226, 0.5, 0, 1.5
100227, 0.5, 3, 1.5
100228, 0.7, 0, 1.5
100229, 0.7, 3, 1.5
100230, 0.9, 0, 1.5
100231, 0.9, 3, 1.5
100232, 1.1, 0, 1.5
100233, 1.1, 3, 1.5
100234, 1.3, 0, 1.5
100235, 1.3, 3, 1.5
100236, 1.5, 0, 1.5
100237, 1.5, 3, 1.5
100238, 1.7, 0, 1.5
100239, 1.7, 3, 1.5
100240, 1.9, 0, 1.5
100241, 1.9, 3, 1.5
100242, 2.1, 0, 1.5
100243, 2.1, 3, 1.5
100244, 2.3, 0, 1.5
100245, 2.3, 3, 1.5
100246, 2.5, 0, 1.5
100247, 2.5, 3, 1.5
100248, 2.7, 0, 1.5
100249, 2.7, 3, 1.5
100250, 2.9, 0, 1.5
100251, 2.9, 3, 1.5
100252, 3.1, 0, 1.5
100253, 3.1, 3, 1.5
100254, 3.3, 0, 1.5
100255, 3.3, 3, 1.5
100256, 0, 0.1, 1.7
100257, 3.4, 0.1, 1.7
100258, 0, 0.3, 1.7
100259, 3.4, 0.3, 1.7
100260, 0, 0.5, 1.7
100261, 3.4, 0.5, 1.7
100262, 0, 0.7, 1.7
100263, 3.4, 0.7, 1.7
100264, 0, 0.9, 1.7
100265, 3.4, 0.9, 1.7
100266, 0, 1.1, 1.7
100267, 3.4, 1.1, 1.7
100268, 0, 1.3, 1.7
100269, 3.4, 1.3, 1.7
100270, 0, 1.5, 1.7
100271, 3.4, 1.5, 1.7
100272, 0, 1.7, 1.7
100273, 3.4, 1.7, 1.7
100274, 0, 1.9, 1.7
100275, 3.4, 1.9, 1.7
100276, 0, 2.1, 1.7
100277, 3.4, 2.1, 1.7
100278, 0, 2.3, 1.7
100279, 3.4, 2.3, 1.7
100280, 0, 2.5, 1.7
100281, 3.4, 2.5, 1.7
100282, 0, 2.7, 1.7
100283, 3.4, 2.7, 1.7
100284, 0, 2.9, 1.7
100285, 3.4, 2.9, 1.7
100286, 0.1, 0, 1.9
100287, 0.1, 3, 1.9
100288, 0.3, 0, 1.9
100289, 0.3, 3, 1.9
100290, 0.5, 0, 1.9
100291, 0.5, 3, 1.9
100292, 0.7, 0, 1.9
100293, 0.7, 3, 1.9
100294, 0.9, 0, 1.9
100295, 0.9, 3, 1.9
100296, 1.1, 0, 1.9
100297, 1.1, 3, 1.9
100298, 1.3, 0, 1.9
100299, 1.3, 3, 1.9
100300, 1.5, 0, 1.9
100301, 1.5, 3, 1.9
100302, 1.7, 0, 1.9
100303, 1.7, 3, 1.9
100304, 1.9, 0, 1.9
100305, 1.9, 3, 1.9
100306, 2.1, 0, 1.9
100307, 2.1, 3, 1.9
100308, 2.3, 0, 1.9
100309, 2.3, 3, 1.9
100310, 2.5, 0, 1.9
100311, 2.5, 3, 1.9
100312, 2.7, 0, 1.9
100313, 2.7, 3, 1.9
100314, 2.9, 0, 1.9
100315, 2.9, 3, 1.9
100316, 3.1, 0, 1.9
100317, 3.1, 3, 1.9
100318, 3.3, 0, 1.9
100319, 3.3, 3, 1.9
*Element, type=T3D2, elset=EMBMESH_FIBERS_T0
100000, 100000,100001
100001, 100002,100003
100002, 100004,100005
100003, 100006,100007
100004, 100008,100009
100005, 100010,100011
100006, 100012,100013
100007, 100014,100015
100008, 100016,100017
100009, 100018,100019
100010, 100020,100021
100011, 100022,100023
100012, 100024,100025
100013, 100026,100027
100014, 100028,100029
100032, 100064,100065
100033, 100066,100067
100034, 100068,100069
100035, 100070,100071
100036, 100072,100073
100037, 100074,100075
100038, 100076,100077
100039, 100078,100079
100040, 100080,100081
100041, 100082,100083
100042, 100084,100085
100043, 100086,100087
100044, 100088,100089
100045, 100090,100091
100046, 100092,100093
100064, 100128,100129
100065, 100130,100131
100066, 100132,100133
100067, 100134,100135
100068, 100136,100137
100069, 100138,100139
100070, 100140,100141
100071, 100142,100143
100072, 100144,100145
100073, 100146,100147
100074, 100148,100149
100075, 100150,100151
100076, 100152,100153
100077, 100154,100155
100078, 100156,100157
100096, 100192,100193
100097, 100194,100195
100098, 100196,100197
100099, 100198,100199
100100, 100200,100201
100101, 100202,100203
100102, 100204,100205
100103, 100206,100207
100104, 100208,100209
100105, 100210,100211
100106, 100212,100213
100107, 100214,100215
100108, 100216,100217
100109, 100218,100219
100110, 100220,100221
100128, 100256,100257
100129, 100258,100259
100130, 100260,100261
100131, 100262,100263
100132, 100264,100265
100133, 100266,100267
100134, 100268,100269
100135, 100270,100271
100136, 100272,100273
100137, 100274,100275
100138, 100276,100277
100139, 100278,100279
100140, 100280,100281
100141, 100282,100283
100142, 100284,100285
*Element, type=T3D2, elset=EMBMESH_FIBERS_T90
100015, 100030,100031
100016, 100032,100033
100017, 100034,100035
100018, 100036,100037
100019, 100038,100039
100020, 100040,100041
100021, 100042,100043
100022, 100044,100045
100023, 100046,100047
100024, 100048,100049
100025, 100050,100051
100026, 100052,100053
100027, 100054,100055
100028, 100056,100057
100029, 100058,100059
100030, 100060,100061
100031, 100062,100063
100047, 100094,100095
100048, 100096,100097
100049, 100098,100099
100050, 100100,100101
100051, 100102,100103
100052, 100104,100105
100053, 100106,100107
100054, 100108,100109
100055, 100110,100111
100056, 100112,100113
100057, 100114,100115
100058, 100116,100117
100059, 100118,100119
100060, 100120,100121
100061, 100122,100123
100062, 100124,100125
100063, 100126,100127
100079, 100158,100159
100080, 100160,100161
100081, 100162,100163
100082, 100164,100165
100083, 100166,100167
100084, 100168,100169
100085, 100170,100171
100086, 100172,100173
100087, 100174,100175
100088, 100176,100177
100089, 100178,100179
100090, 100180,100181
100091, 100182,100183
100092, 100184,100185
100093, 100186,100187
100094, 100188,100189
100095, 100190,100191
100111, 100222,100223
100112, 100224,100225
100113, 100226,100227
100114, 100228,100229
100115, 100230,100231
100116, 100232,100233
100117, 100234,100235
100118, 100236,100237
100119, 100238,100239
100120, 100240,100241
100121, 100242,100243
100122, 100244,100245
100123, 100246,100247
100124, 100248,100249
100125, 100250,100251
100126, 100252,100253
100127, 100254,100255
100143, 100286,100287
100144, 100288,100289
100145, 100290,100291
100146, 100292,100293
100147, 100294,100295
100148, 100296,100297
100149, 100298,100299
100150, 100300,100301
100151, 100302,100303
100152, 100304,100305
100153, 100306,100307
100154, 100308,100309
100155, 100310,100311
100156, 100312,100313
100157, 100314,100315
100158, 100316,100317
100159, 100318,100319
*Solid Section, elset=EMBMESH_FIBERS_T0, material=EMBMESH_FIBER
0.0314159265358979
*Solid Section, elset=EMBMESH_FIBERS_T90, material=EMBMESH_FIBER
0.0314159265358979
*End Part
*Assembly, name=Assembly
*Instance, name=PLATE-1, part=PLATE
*End Instance
*Instance, name=EMBFIB-1, part=EMBFIB
*End Instance
*Embedded Element, host elset=PLATE-1.HOST
EMBFIB-1.EMBMESH_FIBERS_T0
EMBFIB-1.EMBMESH_FIBERS_T90
*End Assembly
*Material, name=EMBMESH_FIBER
*Elastic
1, 0.3
