*Heading
** verification deck t11_plate.inp
*Part, name=PLATE
*Node
1, 0, 0, 0
2, 1, 0, 0
3, 2, 0, 0
4, 3, 0, 0
5, 4, 0, 0
6, 0, 1, 0
7, 1, 1, 0
8, 2, 1, 0
9, 3, 1, 0
10, 4, 1, 0
11, 0, 2, 0
12, 1, 2, 0
13, 2, 2, 0
14, 3, 2, 0
15, 4, 2, 0
16, 0, 3, 0
17, 1, 3, 0
18, 2, 3, 0
19, 3, 3, 0
20, 4, 3, 0
21, 0, 0, 1
22, 1, 0, 1
23, 2, 0, 1
24, 3, 0, 1
25, 4, 0, 1
26, 0, 1, 1
27, 1, 1, 1
28, 2, 1, 1
29, 3, 1, 1
30, 4, 1, 1
31, 0, 2, 1
32, 1, 2, 1
33, 2, 2, 1
34, 3, 2, 1
35, 4, 2, 1
36, 0, 3, 1
37, 1, 3, 1
38, 2, 3, 1
39, 3, 3, 1
40, 4, 3, 1
41, 0, 0, 2
42, 1, 0, 2
43, 2, 0, 2
44, 3, 0, 2
45, 4, 0, 2
46, 0, 1, 2
47, 1, 1, 2
48, 2, 1, 2
49, 3, 1, 2
50, 4, 1, 2
51, 0, 2, 2
52, 1, 2, 2
53, 2, 2, 2
54, 3, 2, 2
55, 4, 2, 2
56, 0, 3, 2
57, 1, 3, 2
58, 2, 3, 2
59, 3, 3, 2
60, 4, 3, 2
*Element, type=C3D8R, elset=HOST
1, 1, 2, 7, 6, 21, 22, 27, 26
2, 2, 3, 8, 7, 22, 23, 28, 27
3, 3, 4, 9, 8, 23, 24, 29, 28
4, 4, 5, 10, 9, 24, 25, 30, 29
5, 6, 7, 12, 11, 26, 27, 32, 31
6, 7, 8, 13, 12, 27, 28, 33, 32
7, 8, 9, 14, 13, 28, 29, 34, 33
8, 9, 10, 15, 14, 29, 30, 35, 34
9, 11, 12, 17, 16, 31, 32, 37, 36
10, 12, 13, 18, 17, 32, 33, 38, 37
11, 13, 14, 19, 18, 33, 34, 39, 38
12, 14, 15, 20, 19, 34, 35, 40, 39
13, 21, 22, 27, 26, 41, 42, 47, 46
14, 22, 23, 28, 27, 42, 43, 48, 47
15, 23, 24, 29, 28, 43, 44, 49, 48
16, 24, 25, 30, 29, 44, 45, 50, 49
17, 26, 27, 32, 31, 46, 47, 52, 51
18, 27, 28, 33, 32, 47, 48, 53, 52
19, 28, 29, 34, 33, 48, 49, 54, 53
20, 29, 30, 35, 34, 49, 50, 55, 54
21, 31, 32, 37, 36, 51, 52, 57, 56
22, 32, 33, 38, 37, 52, 53, 58, 57
23, 33, 34, 39, 38, 53, 54, 59, 58
24, 34, 35, 40, 39, 54, 55, 60, 59
*Nset, nset=NS, generate
1, 10, 1
*Elset, elset=ES, generate
1, 12, 1
*End Part
*Assembly, name=Assembly
*Instance, name=PLATE-1, part=PLATE
*End Instance
*End Assembly
