*Heading
** verification deck t13_Lshape.inp
*Part, name=PLATE
*Node
1, 0, 0, 0
2, 0.5, 0, 0
3, 1, 0, 0
4, 1.5, 0, 0
5, 2, 0, 0
6, 0, 0.5, 0
7, 0.5, 0.5, 0
8, 1, 0.5, 0
9, 1.5, 0.5, 0
10, 2, 0.5, 0
11, 0, 1, 0
12, 0.5, 1, 0
13, 1, 1, 0
14, 1.5, 1, 0
15, 2, 1, 0
16, 0, 1.5, 0
17, 0.5, 1.5, 0
18, 1, 1.5, 0
19, 1.5, 1.5, 0
20, 2, 1.5, 0
21, 0, 2, 0
22, 0.5, 2, 0
23, 1, 2, 0
24, 1.5, 2, 0
25, 2, 2, 0
26, 0, 0, 0.5
27, 0.5, 0, 0.5
28, 1, 0, 0.5
29, 1.5, 0, 0.5
30, 2, 0, 0.5
31, 0, 0.5, 0.5
32, 0.5, 0.5, 0.5
33, 1, 0.5, 0.5
34, 1.5, 0.5, 0.5
35, 2, 0.5, 0.5
36, 0, 1, 0.5
37, 0.5, 1, 0.5
38, 1, 1, 0.5
39, 1.5, 1, 0.5
40, 2, 1, 0.5
41, 0, 1.5, 0.5
42, 0.5, 1.5, 0.5
43, 1, 1.5, 0.5
44, 1.5, 1.5, 0.5
45, 2, 1.5, 0.5
46, 0, 2, 0.5
47, 0.5, 2, 0.5
48, 1, 2, 0.5
49, 1.5, 2, 0.5
50, 2, 2, 0.5
51, 0, 0, 1
52, 0.5, 0, 1
53, 1, 0, 1
54, 1.5, 0, 1
55, 2, 0, 1
56, 0, 0.5, 1
57, 0.5, 0.5, 1
58, 1, 0.5, 1
59, 1.5, 0.5, 1
60, 2, 0.5, 1
61, 0, 1, 1
62, 0.5, 1, 1
63, 1, 1, 1
64, 1.5, 1, 1
65, 2, 1, 1
66, 0, 1.5, 1
67, 0.5, 1.5, 1
68, 1, 1.5, 1
69, 1.5, 1.5, 1
70, 2, 1.5, 1
71, 0, 2, 1
72, 0.5, 2, 1
73, 1, 2, 1
74, 1.5, 2, 1
75, 2, 2, 1
*Element, type=C3D8R, elset=HOST
1, 1, 2, 7, 6, 26, 27, 32, 31
2, 2, 3, 8, 7, 27, 28, 33, 32
5, 6, 7, 12, 11, 31, 32, 37, 36
6, 7, 8, 13, 12, 32, 33, 38, 37
9, 11, 12, 17, 16, 36, 37, 42, 41
10, 12, 13, 18, 17, 37, 38, 43, 42
13, 16, 17, 22, 21, 41, 42, 47, 46
14, 17, 18, 23, 22, 42, 43, 48, 47
17, 26, 27, 32, 31, 51, 52, 57, 56
18, 27, 28, 33, 32, 52, 53, 58, 57
21, 31, 32, 37, 36, 56, 57, 62, 61
22, 32, 33, 38, 37, 57, 58, 63, 62
25, 36, 37, 42, 41, 61, 62, 67, 66
26, 37, 38, 43, 42, 62, 63, 68, 67
29, 41, 42, 47, 46, 66, 67, 72, 71
30, 42, 43, 48, 47, 67, 68, 73, 72
*End Part
*Assembly, name=Assembly
*Instance, name=PLATE-1, part=PLATE
*End Instance
*End Assembly
