*Heading
** verification deck t13_flat_b.inp
*Part, name=PLATE
*Node
1, 0, 0, 0
2, 1, 0, 0
3, 2, 0, 0
4, 3, 0, 0
5, 0, 1, 0
6, 1, 1, 0
7, 2, 1, 0
8, 3, 1, 0
9, 0, 2, 0
10, 1, 2, 0
11, 2, 2, 0
12, 3, 2, 0
13, 0, 3, 0
14, 1, 3, 0
15, 2, 3, 0
16, 3, 3, 0
17, 0, 0, 0.5
18, 1, 0, 0.5
19, 2, 0, 0.5
20, 3, 0, 0.5
21, 0, 1, 0.5
22, 1, 1, 0.5
23, 2, 1, 0.5
24, 3, 1, 0.5
25, 0, 2, 0.5
26, 1, 2, 0.5
27, 2, 2, 0.5
28, 3, 2, 0.5
29, 0, 3, 0.5
30, 1, 3, 0.5
31, 2, 3, 0.5
32, 3, 3, 0.5
33, 0, 0, 1
34, 1, 0, 1
35, 2, 0, 1
36, 3, 0, 1
37, 0, 1, 1
38, 1, 1, 1
39, 2, 1, 1
40, 3, 1, 1
41, 0, 2, 1
42, 1, 2, 1
43, 2, 2, 1
44, 3, 2, 1
45, 0, 3, 1
46, 1, 3, 1
47, 2, 3, 1
48, 3, 3, 1
49, 0, 0, 1.5
50, 1, 0, 1.5
51, 2, 0, 1.5
52, 3, 0, 1.5
53, 0, 1, 1.5
54, 1, 1, 1.5
55, 2, 1, 1.5
56, 3, 1, 1.5
57, 0, 2, 1.5
58, 1, 2, 1.5
59, 2, 2, 1.5
60, 3, 2, 1.5
61, 0, 3, 1.5
62, 1, 3, 1.5
63, 2, 3, 1.5
64, 3, 3, 1.5
*Element, type=C3D8R, elset=HOST
1, 1, 2, 6, 5, 17, 18, 22, 21
2, 2, 3, 7, 6, 18, 19, 23, 22
3, 3, 4, 8, 7, 19, 20, 24, 23
4, 5, 6, 10, 9, 21, 22, 26, 25
5, 6, 7, 11, 10, 22, 23, 27, 26
6, 7, 8, 12, 11, 23, 24, 28, 27
7, 9, 10, 14, 13, 25, 26, 30, 29
8, 10, 11, 15, 14, 26, 27, 31, 30
9, 11, 12, 16, 15, 27, 28, 32, 31
10, 17, 18, 22, 21, 33, 34, 38, 37
11, 18, 19, 23, 22, 34, 35, 39, 38
12, 19, 20, 24, 23, 35, 36, 40, 39
13, 21, 22, 26, 25, 37, 38, 42, 41
14, 22, 23, 27, 26, 38, 39, 43, 42
15, 23, 24, 28, 27, 39, 40, 44, 43
16, 25, 26, 30, 29, 41, 42, 46, 45
17, 26, 27, 31, 30, 42, 43, 47, 46
18, 27, 28, 32, 31, 43, 44, 48, 47
19, 33, 34, 38, 37, 49, 50, 54, 53
20, 34, 35, 39, 38, 50, 51, 55, 54
21, 35, 36, 40, 39, 51, 52, 56, 55
22, 37, 38, 42, 41, 53, 54, 58, 57
23, 38, 39, 43, 42, 54, 55, 59, 58
24, 39, 40, 44, 43, 55, 56, 60, 59
25, 41, 42, 46, 45, 57, 58, 62, 61
26, 42, 43, 47, 46, 58, 59, 63, 62
27, 43, 44, 48, 47, 59, 60, 64, 63
*End Part
*Assembly, name=Assembly
*Instance, name=PLATE-1, part=PLATE
*End Instance
*End Assembly
