*Heading
** verification deck t13_scale_1e-06.inp
*Part, name=PLATE
*Node
1, 0, 0, 0
2, 1e-06, 0, 0
3, 2e-06, 0, 0
4, 0, 1e-06, 0
5, 1e-06, 1e-06, 0
6, 2e-06, 1e-06, 0
7, 0, 2e-06, 0
8, 1e-06, 2e-06, 0
9, 2e-06, 2e-06, 0
10, 0, 0, 5e-07
11, 1e-06, 0, 5e-07
12, 2e-06, 0, 5e-07
13, 0, 1e-06, 5e-07
14, 1e-06, 1e-06, 5e-07
15, 2e-06, 1e-06, 5e-07
16, 0, 2e-06, 5e-07
17, 1e-06, 2e-06, 5e-07
18, 2e-06, 2e-06, 5e-07
19, 0, 0, 1e-06
20, 1e-06, 0, 1e-06
21, 2e-06, 0, 1e-06
22, 0, 1e-06, 1e-06
23, 1e-06, 1e-06, 1e-06
24, 2e-06, 1e-06, 1e-06
25, 0, 2e-06, 1e-06
26, 1e-06, 2e-06, 1e-06
27, 2e-06, 2e-06, 1e-06
*Element, type=C3D8R, elset=HOST
1, 1, 2, 5, 4, 10, 11, 14, 13
2, 2, 3, 6, 5, 11, 12, 15, 14
3, 4, 5, 8, 7, 13, 14, 17, 16
4, 5, 6, 9, 8, 14, 15, 18, 17
5, 10, 11, 14, 13, 19, 20, 23, 22
6, 11, 12, 15, 14, 20, 21, 24, 23
7, 13, 14, 17, 16, 22, 23, 26, 25
8, 14, 15, 18, 17, 23, 24, 27, 26
*End Part
*Assembly, name=Assembly
*Instance, name=PLATE-1, part=PLATE
*End Instance
*End Assembly
