*Heading
** verification deck t13_scale_0.001.inp
*Part, name=PLATE
*Node
1, 0, 0, 0
2, 0.001, 0, 0
3, 0.002, 0, 0
4, 0, 0.001, 0
5, 0.001, 0.001, 0
6, 0.002, 0.001, 0
7, 0, 0.002, 0
8, 0.001, 0.002, 0
9, 0.002, 0.002, 0
10, 0, 0, 0.0005
11, 0.001, 0, 0.0005
12, 0.002, 0, 0.0005
13, 0, 0.001, 0.0005
14, 0.001, 0.001, 0.0005
15, 0.002, 0.001, 0.0005
16, 0, 0.002, 0.0005
17, 0.001, 0.002, 0.0005
18, 0.002, 0.002, 0.0005
19, 0, 0, 0.001
20, 0.001, 0, 0.001
21, 0.002, 0, 0.001
22, 0, 0.001, 0.001
23, 0.001, 0.001, 0.001
24, 0.002, 0.001, 0.001
25, 0, 0.002, 0.001
26, 0.001, 0.002, 0.001
27, 0.002, 0.002, 0.001
*Element, type=C3D8R, elset=HOST
1, 1, 2, 5, 4, 10, 11, 14, 13
2, 2, 3, 6, 5, 11, 12, 15, 14
3, 4, 5, 8, 7, 13, 14, 17, 16
4, 5, 6, 9, 8, 14, 15, 18, 17
5, 10, 11, 14, 13, 19, 20, 23, 22
6, 11, 12, 15, 14, 20, 21, 24, 23
7, 13, 14, 17, 16, 22, 23, 26, 25
8, 14, 15, 18, 17, 23, 24, 27, 26
*End Part
*Assembly, name=Assembly
*Instance, name=PLATE-1, part=PLATE
*End Instance
*End Assembly
