*Heading
** verification deck t14_b.inp
*Part, name=PLATE
*Node
1, 0, 0, 0
2, 0.5, 0, 0
3, 1, 0, 0
4, 0, 0.5, 0
5, 0.5, 0.5, 0
6, 1, 0.5, 0
7, 0, 1, 0
8, 0.5, 1, 0
9, 1, 1, 0
10, 0, 0, 0.5
11, 0.5, 0, 0.5
12, 1, 0, 0.5
13, 0, 0.5, 0.5
14, 0.5, 0.5, 0.5
15, 1, 0.5, 0.5
16, 0, 1, 0.5
17, 0.5, 1, 0.5
18, 1, 1, 0.5
19, 0, 0, 1
20, 0.5, 0, 1
21, 1, 0, 1
22, 0, 0.5, 1
23, 0.5, 0.5, 1
24, 1, 0.5, 1
25, 0, 1, 1
26, 0.5, 1, 1
27, 1, 1, 1
*Element, type=C3D8R, elset=HOST
1, 1, 2, 5, 4, 10, 11, 14, 13
2, 2, 3, 6, 5, 11, 12, 15, 14
3, 4, 5, 8, 7, 13, 14, 17, 16
4, 5, 6, 9, 8, 14, 15, 18, 17
5, 10, 11, 14, 13, 19, 20, 23, 22
6, 11, 12, 15, 14, 20, 21, 24, 23
7, 13, 14, 17, 16, 22, 23, 26, 25
8, 14, 15, 18, 17, 23, 24, 27, 26
*End Part
*Assembly, name=Assembly
*Instance, name=PLATE-1, part=PLATE
*End Instance
*End Assembly
