*Heading
** verification deck t14_thickY.inp
*Part, name=PLATE
*Node
1, 0, 0, 0
2, 1, 0, 0
3, 2, 0, 0
4, 0, 0.25, 0
5, 1, 0.25, 0
6, 2, 0.25, 0
7, 0, 0.5, 0
8, 1, 0.5, 0
9, 2, 0.5, 0
10, 0, 0, 1
11, 1, 0, 1
12, 2, 0, 1
13, 0, 0.25, 1
14, 1, 0.25, 1
15, 2, 0.25, 1
16, 0, 0.5, 1
17, 1, 0.5, 1
18, 2, 0.5, 1
19, 0, 0, 2
20, 1, 0, 2
21, 2, 0, 2
22, 0, 0.25, 2
23, 1, 0.25, 2
24, 2, 0.25, 2
25, 0, 0.5, 2
26, 1, 0.5, 2
27, 2, 0.5, 2
*Element, type=C3D8R, elset=HOST
1, 1, 2, 5, 4, 10, 11, 14, 13
2, 2, 3, 6, 5, 11, 12, 15, 14
3, 4, 5, 8, 7, 13, 14, 17, 16
4, 5, 6, 9, 8, 14, 15, 18, 17
5, 10, 11, 14, 13, 19, 20, 23, 22
6, 11, 12, 15, 14, 20, 21, 24, 23
7, 13, 14, 17, 16, 22, 23, 26, 25
8, 14, 15, 18, 17, 23, 24, 27, 26
*End Part
*Assembly, name=Assembly
*Instance, name=PLATE-1, part=PLATE
*End Instance
*End Assembly
