*Heading
** verification deck t16_perf2.inp
*Part, name=PLATE
*Node
1, 0, 0, 0
2, 0.5, 0, 0
3, 1, 0, 0
4, 1.5, 0, 0
5, 2, 0, 0
6, 2.5, 0, 0
7, 3, 0, 0
8, 3.5, 0, 0
9, 4, 0, 0
10, 4.5, 0, 0
11, 5, 0, 0
12, 5.5, 0, 0
13, 6, 0, 0
14, 6.5, 0, 0
15, 7, 0, 0
16, 7.5, 0, 0
17, 8, 0, 0
18, 8.5, 0, 0
19, 9, 0, 0
20, 9.5, 0, 0
21, 10, 0, 0
22, 0, 0.5, 0
23, 0.5, 0.5, 0
24, 1, 0.5, 0
25, 1.5, 0.5, 0
26, 2, 0.5, 0
27, 2.5, 0.5, 0
28, 3, 0.5, 0
29, 3.5, 0.5, 0
30, 4, 0.5, 0
31, 4.5, 0.5, 0
32, 5, 0.5, 0
33, 5.5, 0.5, 0
34, 6, 0.5, 0
35, 6.5, 0.5, 0
36, 7, 0.5, 0
37, 7.5, 0.5, 0
38, 8, 0.5, 0
39, 8.5, 0.5, 0
40, 9, 0.5, 0
41, 9.5, 0.5, 0
42, 10, 0.5, 0
43, 0, 1, 0
44, 0.5, 1, 0
45, 1, 1, 0
46, 1.5, 1, 0
47, 2, 1, 0
48, 2.5, 1, 0
49, 3, 1, 0
50, 3.5, 1, 0
51, 4, 1, 0
52, 4.5, 1, 0
53, 5, 1, 0
54, 5.5, 1, 0
55, 6, 1, 0
56, 6.5, 1, 0
57, 7, 1, 0
58, 7.5, 1, 0
59, 8, 1, 0
60, 8.5, 1, 0
61, 9, 1, 0
62, 9.5, 1, 0
63, 10, 1, 0
64, 0, 1.5, 0
65, 0.5, 1.5, 0
66, 1, 1.5, 0
67, 1.5, 1.5, 0
68, 2, 1.5, 0
69, 2.5, 1.5, 0
70, 3, 1.5, 0
71, 3.5, 1.5, 0
72, 4, 1.5, 0
73, 4.5, 1.5, 0
74, 5, 1.5, 0
75, 5.5, 1.5, 0
76, 6, 1.5, 0
77, 6.5, 1.5, 0
78, 7, 1.5, 0
79, 7.5, 1.5, 0
80, 8, 1.5, 0
81, 8.5, 1.5, 0
82, 9, 1.5, 0
83, 9.5, 1.5, 0
84, 10, 1.5, 0
85, 0, 2, 0
86, 0.5, 2, 0
87, 1, 2, 0
88, 1.5, 2, 0
89, 2, 2, 0
90, 2.5, 2, 0
91, 3, 2, 0
92, 3.5, 2, 0
93, 4, 2, 0
94, 4.5, 2, 0
95, 5, 2, 0
96, 5.5, 2, 0
97, 6, 2, 0
98, 6.5, 2, 0
99, 7, 2, 0
100, 7.5, 2, 0
101, 8, 2, 0
102, 8.5, 2, 0
103, 9, 2, 0
104, 9.5, 2, 0
105, 10, 2, 0
106, 0, 2.5, 0
107, 0.5, 2.5, 0
108, 1, 2.5, 0
109, 1.5, 2.5, 0
110, 2, 2.5, 0
111, 2.5, 2.5, 0
112, 3, 2.5, 0
113, 3.5, 2.5, 0
114, 4, 2.5, 0
115, 4.5, 2.5, 0
116, 5, 2.5, 0
117, 5.5, 2.5, 0
118, 6, 2.5, 0
119, 6.5, 2.5, 0
120, 7, 2.5, 0
121, 7.5, 2.5, 0
122, 8, 2.5, 0
123, 8.5, 2.5, 0
124, 9, 2.5, 0
125, 9.5, 2.5, 0
126, 10, 2.5, 0
127, 0, 3, 0
128, 0.5, 3, 0
129, 1, 3, 0
130, 1.5, 3, 0
131, 2, 3, 0
132, 2.5, 3, 0
133, 3, 3, 0
134, 3.5, 3, 0
135, 4, 3, 0
136, 4.5, 3, 0
137, 5, 3, 0
138, 5.5, 3, 0
139, 6, 3, 0
140, 6.5, 3, 0
141, 7, 3, 0
142, 7.5, 3, 0
143, 8, 3, 0
144, 8.5, 3, 0
145, 9, 3, 0
146, 9.5, 3, 0
147, 10, 3, 0
148, 0, 3.5, 0
149, 0.5, 3.5, 0
150, 1, 3.5, 0
151, 1.5, 3.5, 0
152, 2, 3.5, 0
153, 2.5, 3.5, 0
154, 3, 3.5, 0
155, 3.5, 3.5, 0
156, 4, 3.5, 0
157, 4.5, 3.5, 0
158, 5, 3.5, 0
159, 5.5, 3.5, 0
160, 6, 3.5, 0
161, 6.5, 3.5, 0
162, 7, 3.5, 0
163, 7.5, 3.5, 0
164, 8, 3.5, 0
165, 8.5, 3.5, 0
166, 9, 3.5, 0
167, 9.5, 3.5, 0
168, 10, 3.5, 0
169, 0, 4, 0
170, 0.5, 4, 0
171, 1, 4, 0
172, 1.5, 4, 0
173, 2, 4, 0
174, 2.5, 4, 0
175, 3, 4, 0
176, 3.5, 4, 0
177, 4, 4, 0
178, 4.5, 4, 0
179, 5, 4, 0
180, 5.5, 4, 0
181, 6, 4, 0
182, 6.5, 4, 0
183, 7, 4, 0
184, 7.5, 4, 0
185, 8, 4, 0
186, 8.5, 4, 0
187, 9, 4, 0
188, 9.5, 4, 0
189, 10, 4, 0
190, 0, 4.5, 0
191, 0.5, 4.5, 0
192, 1, 4.5, 0
193, 1.5, 4.5, 0
194, 2, 4.5, 0
195, 2.5, 4.5, 0
196, 3, 4.5, 0
197, 3.5, 4.5, 0
198, 4, 4.5, 0
199, 4.5, 4.5, 0
200, 5, 4.5, 0
201, 5.5, 4.5, 0
202, 6, 4.5, 0
203, 6.5, 4.5, 0
204, 7, 4.5, 0
205, 7.5, 4.5, 0
206, 8, 4.5, 0
207, 8.5, 4.5, 0
208, 9, 4.5, 0
209, 9.5, 4.5, 0
210, 10, 4.5, 0
211, 0, 5, 0
212, 0.5, 5, 0
213, 1, 5, 0
214, 1.5, 5, 0
215, 2, 5, 0
216, 2.5, 5, 0
217, 3, 5, 0
218, 3.5, 5, 0
219, 4, 5, 0
220, 4.5, 5, 0
221, 5, 5, 0
222, 5.5, 5, 0
223, 6, 5, 0
224, 6.5, 5, 0
225, 7, 5, 0
226, 7.5, 5, 0
227, 8, 5, 0
228, 8.5, 5, 0
229, 9, 5, 0
230, 9.5, 5, 0
231, 10, 5, 0
232, 0, 5.5, 0
233, 0.5, 5.5, 0
234, 1, 5.5, 0
235, 1.5, 5.5, 0
236, 2, 5.5, 0
237, 2.5, 5.5, 0
238, 3, 5.5, 0
239, 3.5, 5.5, 0
240, 4, 5.5, 0
241, 4.5, 5.5, 0
242, 5, 5.5, 0
243, 5.5, 5.5, 0
244, 6, 5.5, 0
245, 6.5, 5.5, 0
246, 7, 5.5, 0
247, 7.5, 5.5, 0
248, 8, 5.5, 0
249, 8.5, 5.5, 0
250, 9, 5.5, 0
251, 9.5, 5.5, 0
252, 10, 5.5, 0
253, 0, 6, 0
254, 0.5, 6, 0
255, 1, 6, 0
256, 1.5, 6, 0
257, 2, 6, 0
258, 2.5, 6, 0
259, 3, 6, 0
260, 3.5, 6, 0
261, 4, 6, 0
262, 4.5, 6, 0
263, 5, 6, 0
264, 5.5, 6, 0
265, 6, 6, 0
266, 6.5, 6, 0
267, 7, 6, 0
268, 7.5, 6, 0
269, 8, 6, 0
270, 8.5, 6, 0
271, 9, 6, 0
272, 9.5, 6, 0
273, 10, 6, 0
274, 0, 6.5, 0
275, 0.5, 6.5, 0
276, 1, 6.5, 0
277, 1.5, 6.5, 0
278, 2, 6.5, 0
279, 2.5, 6.5, 0
280, 3, 6.5, 0
281, 3.5, 6.5, 0
282, 4, 6.5, 0
283, 4.5, 6.5, 0
284, 5, 6.5, 0
285, 5.5, 6.5, 0
286, 6, 6.5, 0
287, 6.5, 6.5, 0
288, 7, 6.5, 0
289, 7.5, 6.5, 0
290, 8, 6.5, 0
291, 8.5, 6.5, 0
292, 9, 6.5, 0
293, 9.5, 6.5, 0
294, 10, 6.5, 0
295, 0, 7, 0
296, 0.5, 7, 0
297, 1, 7, 0
298, 1.5, 7, 0
299, 2, 7, 0
300, 2.5, 7, 0
301, 3, 7, 0
302, 3.5, 7, 0
303, 4, 7, 0
304, 4.5, 7, 0
305, 5, 7, 0
306, 5.5, 7, 0
307, 6, 7, 0
308, 6.5, 7, 0
309, 7, 7, 0
310, 7.5, 7, 0
311, 8, 7, 0
312, 8.5, 7, 0
313, 9, 7, 0
314, 9.5, 7, 0
315, 10, 7, 0
316, 0, 7.5, 0
317, 0.5, 7.5, 0
318, 1, 7.5, 0
319, 1.5, 7.5, 0
320, 2, 7.5, 0
321, 2.5, 7.5, 0
322, 3, 7.5, 0
323, 3.5, 7.5, 0
324, 4, 7.5, 0
325, 4.5, 7.5, 0
326, 5, 7.5, 0
327, 5.5, 7.5, 0
328, 6, 7.5, 0
329, 6.5, 7.5, 0
330, 7, 7.5, 0
331, 7.5, 7.5, 0
332, 8, 7.5, 0
333, 8.5, 7.5, 0
334, 9, 7.5, 0
335, 9.5, 7.5, 0
336, 10, 7.5, 0
337, 0, 8, 0
338, 0.5, 8, 0
339, 1, 8, 0
340, 1.5, 8, 0
341, 2, 8, 0
342, 2.5, 8, 0
343, 3, 8, 0
344, 3.5, 8, 0
345, 4, 8, 0
346, 4.5, 8, 0
347, 5, 8, 0
348, 5.5, 8, 0
349, 6, 8, 0
350, 6.5, 8, 0
351, 7, 8, 0
352, 7.5, 8, 0
353, 8, 8, 0
354, 8.5, 8, 0
355, 9, 8, 0
356, 9.5, 8, 0
357, 10, 8, 0
358, 0, 8.5, 0
359, 0.5, 8.5, 0
360, 1, 8.5, 0
361, 1.5, 8.5, 0
362, 2, 8.5, 0
363, 2.5, 8.5, 0
364, 3, 8.5, 0
365, 3.5, 8.5, 0
366, 4, 8.5, 0
367, 4.5, 8.5, 0
368, 5, 8.5, 0
369, 5.5, 8.5, 0
370, 6, 8.5, 0
371, 6.5, 8.5, 0
372, 7, 8.5, 0
373, 7.5, 8.5, 0
374, 8, 8.5, 0
375, 8.5, 8.5, 0
376, 9, 8.5, 0
377, 9.5, 8.5, 0
378, 10, 8.5, 0
379, 0, 9, 0
380, 0.5, 9, 0
381, 1, 9, 0
382, 1.5, 9, 0
383, 2, 9, 0
384, 2.5, 9, 0
385, 3, 9, 0
386, 3.5, 9, 0
387, 4, 9, 0
388, 4.5, 9, 0
389, 5, 9, 0
390, 5.5, 9, 0
391, 6, 9, 0
392, 6.5, 9, 0
393, 7, 9, 0
394, 7.5, 9, 0
395, 8, 9, 0
396, 8.5, 9, 0
397, 9, 9, 0
398, 9.5, 9, 0
399, 10, 9, 0
400, 0, 9.5, 0
401, 0.5, 9.5, 0
402, 1, 9.5, 0
403, 1.5, 9.5, 0
404, 2, 9.5, 0
405, 2.5, 9.5, 0
406, 3, 9.5, 0
407, 3.5, 9.5, 0
408, 4, 9.5, 0
409, 4.5, 9.5, 0
410, 5, 9.5, 0
411, 5.5, 9.5, 0
412, 6, 9.5, 0
413, 6.5, 9.5, 0
414, 7, 9.5, 0
415, 7.5, 9.5, 0
416, 8, 9.5, 0
417, 8.5, 9.5, 0
418, 9, 9.5, 0
419, 9.5, 9.5, 0
420, 10, 9.5, 0
421, 0, 10, 0
422, 0.5, 10, 0
423, 1, 10, 0
424, 1.5, 10, 0
425, 2, 10, 0
426, 2.5, 10, 0
427, 3, 10, 0
428, 3.5, 10, 0
429, 4, 10, 0
430, 4.5, 10, 0
431, 5, 10, 0
432, 5.5, 10, 0
433, 6, 10, 0
434, 6.5, 10, 0
435, 7, 10, 0
436, 7.5, 10, 0
437, 8, 10, 0
438, 8.5, 10, 0
439, 9, 10, 0
440, 9.5, 10, 0
441, 10, 10, 0
442, 0, 0, 0.5
443, 0.5, 0, 0.5
444, 1, 0, 0.5
445, 1.5, 0, 0.5
446, 2, 0, 0.5
447, 2.5, 0, 0.5
448, 3, 0, 0.5
449, 3.5, 0, 0.5
450, 4, 0, 0.5
451, 4.5, 0, 0.5
452, 5, 0, 0.5
453, 5.5, 0, 0.5
454, 6, 0, 0.5
455, 6.5, 0, 0.5
456, 7, 0, 0.5
457, 7.5, 0, 0.5
458, 8, 0, 0.5
459, 8.5, 0, 0.5
460, 9, 0, 0.5
461, 9.5, 0, 0.5
462, 10, 0, 0.5
463, 0, 0.5, 0.5
464, 0.5, 0.5, 0.5
465, 1, 0.5, 0.5
466, 1.5, 0.5, 0.5
467, 2, 0.5, 0.5
468, 2.5, 0.5, 0.5
469, 3, 0.5, 0.5
470, 3.5, 0.5, 0.5
471, 4, 0.5, 0.5
472, 4.5, 0.5, 0.5
473, 5, 0.5, 0.5
474, 5.5, 0.5, 0.5
475, 6, 0.5, 0.5
476, 6.5, 0.5, 0.5
477, 7, 0.5, 0.5
478, 7.5, 0.5, 0.5
479, 8, 0.5, 0.5
480, 8.5, 0.5, 0.5
481, 9, 0.5, 0.5
482, 9.5, 0.5, 0.5
483, 10, 0.5, 0.5
484, 0, 1, 0.5
485, 0.5, 1, 0.5
486, 1, 1, 0.5
487, 1.5, 1, 0.5
488, 2, 1, 0.5
489, 2.5, 1, 0.5
490, 3, 1, 0.5
491, 3.5, 1, 0.5
492, 4, 1, 0.5
493, 4.5, 1, 0.5
494, 5, 1, 0.5
495, 5.5, 1, 0.5
496, 6, 1, 0.5
497, 6.5, 1, 0.5
498, 7, 1, 0.5
499, 7.5, 1, 0.5
500, 8, 1, 0.5
501, 8.5, 1, 0.5
502, 9, 1, 0.5
503, 9.5, 1, 0.5
504, 10, 1, 0.5
505, 0, 1.5, 0.5
506, 0.5, 1.5, 0.5
507, 1, 1.5, 0.5
508, 1.5, 1.5, 0.5
509, 2, 1.5, 0.5
510, 2.5, 1.5, 0.5
511, 3, 1.5, 0.5
512, 3.5, 1.5, 0.5
513, 4, 1.5, 0.5
514, 4.5, 1.5, 0.5
515, 5, 1.5, 0.5
516, 5.5, 1.5, 0.5
517, 6, 1.5, 0.5
518, 6.5, 1.5, 0.5
519, 7, 1.5, 0.5
520, 7.5, 1.5, 0.5
521, 8, 1.5, 0.5
522, 8.5, 1.5, 0.5
523, 9, 1.5, 0.5
524, 9.5, 1.5, 0.5
525, 10, 1.5, 0.5
526, 0, 2, 0.5
527, 0.5, 2, 0.5
528, 1, 2, 0.5
529, 1.5, 2, 0.5
530, 2, 2, 0.5
531, 2.5, 2, 0.5
532, 3, 2, 0.5
533, 3.5, 2, 0.5
534, 4, 2, 0.5
535, 4.5, 2, 0.5
536, 5, 2, 0.5
537, 5.5, 2, 0.5
538, 6, 2, 0.5
539, 6.5, 2, 0.5
540, 7, 2, 0.5
541, 7.5, 2, 0.5
542, 8, 2, 0.5
543, 8.5, 2, 0.5
544, 9, 2, 0.5
545, 9.5, 2, 0.5
546, 10, 2, 0.5
547, 0, 2.5, 0.5
548, 0.5, 2.5, 0.5
549, 1, 2.5, 0.5
550, 1.5, 2.5, 0.5
551, 2, 2.5, 0.5
552, 2.5, 2.5, 0.5
553, 3, 2.5, 0.5
554, 3.5, 2.5, 0.5
555, 4, 2.5, 0.5
556, 4.5, 2.5, 0.5
557, 5, 2.5, 0.5
558, 5.5, 2.5, 0.5
559, 6, 2.5, 0.5
560, 6.5, 2.5, 0.5
561, 7, 2.5, 0.5
562, 7.5, 2.5, 0.5
563, 8, 2.5, 0.5
564, 8.5, 2.5, 0.5
565, 9, 2.5, 0.5
566, 9.5, 2.5, 0.5
567, 10, 2.5, 0.5
568, 0, 3, 0.5
569, 0.5, 3, 0.5
570, 1, 3, 0.5
571, 1.5, 3, 0.5
572, 2, 3, 0.5
573, 2.5, 3, 0.5
574, 3, 3, 0.5
575, 3.5, 3, 0.5
576, 4, 3, 0.5
577, 4.5, 3, 0.5
578, 5, 3, 0.5
579, 5.5, 3, 0.5
580, 6, 3, 0.5
581, 6.5, 3, 0.5
582, 7, 3, 0.5
583, 7.5, 3, 0.5
584, 8, 3, 0.5
585, 8.5, 3, 0.5
586, 9, 3, 0.5
587, 9.5, 3, 0.5
588, 10, 3, 0.5
589, 0, 3.5, 0.5
590, 0.5, 3.5, 0.5
591, 1, 3.5, 0.5
592, 1.5, 3.5, 0.5
593, 2, 3.5, 0.5
594, 2.5, 3.5, 0.5
595, 3, 3.5, 0.5
596, 3.5, 3.5, 0.5
597, 4, 3.5, 0.5
598, 4.5, 3.5, 0.5
599, 5, 3.5, 0.5
600, 5.5, 3.5, 0.5
601, 6, 3.5, 0.5
602, 6.5, 3.5, 0.5
603, 7, 3.5, 0.5
604, 7.5, 3.5, 0.5
605, 8, 3.5, 0.5
606, 8.5, 3.5, 0.5
607, 9, 3.5, 0.5
608, 9.5, 3.5, 0.5
609, 10, 3.5, 0.5
610, 0, 4, 0.5
611, 0.5, 4, 0.5
612, 1, 4, 0.5
613, 1.5, 4, 0.5
614, 2, 4, 0.5
615, 2.5, 4, 0.5
616, 3, 4, 0.5
617, 3.5, 4, 0.5
618, 4, 4, 0.5
619, 4.5, 4, 0.5
620, 5, 4, 0.5
621, 5.5, 4, 0.5
622, 6, 4, 0.5
623, 6.5, 4, 0.5
624, 7, 4, 0.5
625, 7.5, 4, 0.5
626, 8, 4, 0.5
627, 8.5, 4, 0.5
628, 9, 4, 0.5
629, 9.5, 4, 0.5
630, 10, 4, 0.5
631, 0, 4.5, 0.5
632, 0.5, 4.5, 0.5
633, 1, 4.5, 0.5
634, 1.5, 4.5, 0.5
635, 2, 4.5, 0.5
636, 2.5, 4.5, 0.5
637, 3, 4.5, 0.5
638, 3.5, 4.5, 0.5
639, 4, 4.5, 0.5
640, 4.5, 4.5, 0.5
641, 5, 4.5, 0.5
642, 5.5, 4.5, 0.5
643, 6, 4.5, 0.5
644, 6.5, 4.5, 0.5
645, 7, 4.5, 0.5
646, 7.5, 4.5, 0.5
647, 8, 4.5, 0.5
648, 8.5, 4.5, 0.5
649, 9, 4.5, 0.5
650, 9.5, 4.5, 0.5
651, 10, 4.5, 0.5
652, 0, 5, 0.5
653, 0.5, 5, 0.5
654, 1, 5, 0.5
655, 1.5, 5, 0.5
656, 2, 5, 0.5
657, 2.5, 5, 0.5
658, 3, 5, 0.5
659, 3.5, 5, 0.5
660, 4, 5, 0.5
661, 4.5, 5, 0.5
662, 5, 5, 0.5
663, 5.5, 5, 0.5
664, 6, 5, 0.5
665, 6.5, 5, 0.5
666, 7, 5, 0.5
667, 7.5, 5, 0.5
668, 8, 5, 0.5
669, 8.5, 5, 0.5
670, 9, 5, 0.5
671, 9.5, 5, 0.5
672, 10, 5, 0.5
673, 0, 5.5, 0.5
674, 0.5, 5.5, 0.5
675, 1, 5.5, 0.5
676, 1.5, 5.5, 0.5
677, 2, 5.5, 0.5
678, 2.5, 5.5, 0.5
679, 3, 5.5, 0.5
680, 3.5, 5.5, 0.5
681, 4, 5.5, 0.5
682, 4.5, 5.5, 0.5
683, 5, 5.5, 0.5
684, 5.5, 5.5, 0.5
685, 6, 5.5, 0.5
686, 6.5, 5.5, 0.5
687, 7, 5.5, 0.5
688, 7.5, 5.5, 0.5
689, 8, 5.5, 0.5
690, 8.5, 5.5, 0.5
691, 9, 5.5, 0.5
692, 9.5, 5.5, 0.5
693, 10, 5.5, 0.5
694, 0, 6, 0.5
695, 0.5, 6, 0.5
696, 1, 6, 0.5
697, 1.5, 6, 0.5
698, 2, 6, 0.5
699, 2.5, 6, 0.5
700, 3, 6, 0.5
701, 3.5, 6, 0.5
702, 4, 6, 0.5
703, 4.5, 6, 0.5
704, 5, 6, 0.5
705, 5.5, 6, 0.5
706, 6, 6, 0.5
707, 6.5, 6, 0.5
708, 7, 6, 0.5
709, 7.5, 6, 0.5
710, 8, 6, 0.5
711, 8.5, 6, 0.5
712, 9, 6, 0.5
713, 9.5, 6, 0.5
714, 10, 6, 0.5
715, 0, 6.5, 0.5
716, 0.5, 6.5, 0.5
717, 1, 6.5, 0.5
718, 1.5, 6.5, 0.5
719, 2, 6.5, 0.5
720, 2.5, 6.5, 0.5
721, 3, 6.5, 0.5
722, 3.5, 6.5, 0.5
723, 4, 6.5, 0.5
724, 4.5, 6.5, 0.5
725, 5, 6.5, 0.5
726, 5.5, 6.5, 0.5
727, 6, 6.5, 0.5
728, 6.5, 6.5, 0.5
729, 7, 6.5, 0.5
730, 7.5, 6.5, 0.5
731, 8, 6.5, 0.5
732, 8.5, 6.5, 0.5
733, 9, 6.5, 0.5
734, 9.5, 6.5, 0.5
735, 10, 6.5, 0.5
736, 0, 7, 0.5
737, 0.5, 7, 0.5
738, 1, 7, 0.5
739, 1.5, 7, 0.5
740, 2, 7, 0.5
741, 2.5, 7, 0.5
742, 3, 7, 0.5
743, 3.5, 7, 0.5
744, 4, 7, 0.5
745, 4.5, 7, 0.5
746, 5, 7, 0.5
747, 5.5, 7, 0.5
748, 6, 7, 0.5
749, 6.5, 7, 0.5
750, 7, 7, 0.5
751, 7.5, 7, 0.5
752, 8, 7, 0.5
753, 8.5, 7, 0.5
754, 9, 7, 0.5
755, 9.5, 7, 0.5
756, 10, 7, 0.5
757, 0, 7.5, 0.5
758, 0.5, 7.5, 0.5
759, 1, 7.5, 0.5
760, 1.5, 7.5, 0.5
761, 2, 7.5, 0.5
762, 2.5, 7.5, 0.5
763, 3, 7.5, 0.5
764, 3.5, 7.5, 0.5
765, 4, 7.5, 0.5
766, 4.5, 7.5, 0.5
767, 5, 7.5, 0.5
768, 5.5, 7.5, 0.5
769, 6, 7.5, 0.5
770, 6.5, 7.5, 0.5
771, 7, 7.5, 0.5
772, 7.5, 7.5, 0.5
773, 8, 7.5, 0.5
774, 8.5, 7.5, 0.5
775, 9, 7.5, 0.5
776, 9.5, 7.5, 0.5
777, 10, 7.5, 0.5
778, 0, 8, 0.5
779, 0.5, 8, 0.5
780, 1, 8, 0.5
781, 1.5, 8, 0.5
782, 2, 8, 0.5
783, 2.5, 8, 0.5
784, 3, 8, 0.5
785, 3.5, 8, 0.5
786, 4, 8, 0.5
787, 4.5, 8, 0.5
788, 5, 8, 0.5
789, 5.5, 8, 0.5
790, 6, 8, 0.5
791, 6.5, 8, 0.5
792, 7, 8, 0.5
793, 7.5, 8, 0.5
794, 8, 8, 0.5
795, 8.5, 8, 0.5
796, 9, 8, 0.5
797, 9.5, 8, 0.5
798, 10, 8, 0.5
799, 0, 8.5, 0.5
800, 0.5, 8.5, 0.5
801, 1, 8.5, 0.5
802, 1.5, 8.5, 0.5
803, 2, 8.5, 0.5
804, 2.5, 8.5, 0.5
805, 3, 8.5, 0.5
806, 3.5, 8.5, 0.5
807, 4, 8.5, 0.5
808, 4.5, 8.5, 0.5
809, 5, 8.5, 0.5
810, 5.5, 8.5, 0.5
811, 6, 8.5, 0.5
812, 6.5, 8.5, 0.5
813, 7, 8.5, 0.5
814, 7.5, 8.5, 0.5
815, 8, 8.5, 0.5
816, 8.5, 8.5, 0.5
817, 9, 8.5, 0.5
818, 9.5, 8.5, 0.5
819, 10, 8.5, 0.5
820, 0, 9, 0.5
821, 0.5, 9, 0.5
822, 1, 9, 0.5
823, 1.5, 9, 0.5
824, 2, 9, 0.5
825, 2.5, 9, 0.5
826, 3, 9, 0.5
827, 3.5, 9, 0.5
828, 4, 9, 0.5
829, 4.5, 9, 0.5
830, 5, 9, 0.5
831, 5.5, 9, 0.5
832, 6, 9, 0.5
833, 6.5, 9, 0.5
834, 7, 9, 0.5
835, 7.5, 9, 0.5
836, 8, 9, 0.5
837, 8.5, 9, 0.5
838, 9, 9, 0.5
839, 9.5, 9, 0.5
840, 10, 9, 0.5
841, 0, 9.5, 0.5
842, 0.5, 9.5, 0.5
843, 1, 9.5, 0.5
844, 1.5, 9.5, 0.5
845, 2, 9.5, 0.5
846, 2.5, 9.5, 0.5
847, 3, 9.5, 0.5
848, 3.5, 9.5, 0.5
849, 4, 9.5, 0.5
850, 4.5, 9.5, 0.5
851, 5, 9.5, 0.5
852, 5.5, 9.5, 0.5
853, 6, 9.5, 0.5
854, 6.5, 9.5, 0.5
855, 7, 9.5, 0.5
856, 7.5, 9.5, 0.5
857, 8, 9.5, 0.5
858, 8.5, 9.5, 0.5
859, 9, 9.5, 0.5
860, 9.5, 9.5, 0.5
861, 10, 9.5, 0.5
862, 0, 10, 0.5
863, 0.5, 10, 0.5
864, 1, 10, 0.5
865, 1.5, 10, 0.5
866, 2, 10, 0.5
867, 2.5, 10, 0.5
868, 3, 10, 0.5
869, 3.5, 10, 0.5
870, 4, 10, 0.5
871, 4.5, 10, 0.5
872, 5, 10, 0.5
873, 5.5, 10, 0.5
874, 6, 10, 0.5
875, 6.5, 10, 0.5
876, 7, 10, 0.5
877, 7.5, 10, 0.5
878, 8, 10, 0.5
879, 8.5, 10, 0.5
880, 9, 10, 0.5
881, 9.5, 10, 0.5
882, 10, 10, 0.5
883, 0, 0, 1
884, 0.5, 0, 1
885, 1, 0, 1
886, 1.5, 0, 1
887, 2, 0, 1
888, 2.5, 0, 1
889, 3, 0, 1
890, 3.5, 0, 1
891, 4, 0, 1
892, 4.5, 0, 1
893, 5, 0, 1
894, 5.5, 0, 1
895, 6, 0, 1
896, 6.5, 0, 1
897, 7, 0, 1
898, 7.5, 0, 1
899, 8, 0, 1
900, 8.5, 0, 1
901, 9, 0, 1
902, 9.5, 0, 1
903, 10, 0, 1
904, 0, 0.5, 1
905, 0.5, 0.5, 1
906, 1, 0.5, 1
907, 1.5, 0.5, 1
908, 2, 0.5, 1
909, 2.5, 0.5, 1
910, 3, 0.5, 1
911, 3.5, 0.5, 1
912, 4, 0.5, 1
913, 4.5, 0.5, 1
914, 5, 0.5, 1
915, 5.5, 0.5, 1
916, 6, 0.5, 1
917, 6.5, 0.5, 1
918, 7, 0.5, 1
919, 7.5, 0.5, 1
920, 8, 0.5, 1
921, 8.5, 0.5, 1
922, 9, 0.5, 1
923, 9.5, 0.5, 1
924, 10, 0.5, 1
925, 0, 1, 1
926, 0.5, 1, 1
927, 1, 1, 1
928, 1.5, 1, 1
929, 2, 1, 1
930, 2.5, 1, 1
931, 3, 1, 1
932, 3.5, 1, 1
933, 4, 1, 1
934, 4.5, 1, 1
935, 5, 1, 1
936, 5.5, 1, 1
937, 6, 1, 1
938, 6.5, 1, 1
939, 7, 1, 1
940, 7.5, 1, 1
941, 8, 1, 1
942, 8.5, 1, 1
943, 9, 1, 1
944, 9.5, 1, 1
945, 10, 1, 1
946, 0, 1.5, 1
947, 0.5, 1.5, 1
948, 1, 1.5, 1
949, 1.5, 1.5, 1
950, 2, 1.5, 1
951, 2.5, 1.5, 1
952, 3, 1.5, 1
953, 3.5, 1.5, 1
954, 4, 1.5, 1
955, 4.5, 1.5, 1
956, 5, 1.5, 1
957, 5.5, 1.5, 1
958, 6, 1.5, 1
959, 6.5, 1.5, 1
960, 7, 1.5, 1
961, 7.5, 1.5, 1
962, 8, 1.5, 1
963, 8.5, 1.5, 1
964, 9, 1.5, 1
965, 9.5, 1.5, 1
966, 10, 1.5, 1
967, 0, 2, 1
968, 0.5, 2, 1
969, 1, 2, 1
970, 1.5, 2, 1
971, 2, 2, 1
972, 2.5, 2, 1
973, 3, 2, 1
974, 3.5, 2, 1
975, 4, 2, 1
976, 4.5, 2, 1
977, 5, 2, 1
978, 5.5, 2, 1
979, 6, 2, 1
980, 6.5, 2, 1
981, 7, 2, 1
982, 7.5, 2, 1
983, 8, 2, 1
984, 8.5, 2, 1
985, 9, 2, 1
986, 9.5, 2, 1
987, 10, 2, 1
988, 0, 2.5, 1
989, 0.5, 2.5, 1
990, 1, 2.5, 1
991, 1.5, 2.5, 1
992, 2, 2.5, 1
993, 2.5, 2.5, 1
994, 3, 2.5, 1
995, 3.5, 2.5, 1
996, 4, 2.5, 1
997, 4.5, 2.5, 1
998, 5, 2.5, 1
999, 5.5, 2.5, 1
1000, 6, 2.5, 1
1001, 6.5, 2.5, 1
1002, 7, 2.5, 1
1003, 7.5, 2.5, 1
1004, 8, 2.5, 1
1005, 8.5, 2.5, 1
1006, 9, 2.5, 1
1007, 9.5, 2.5, 1
1008, 10, 2.5, 1
1009, 0, 3, 1
1010, 0.5, 3, 1
1011, 1, 3, 1
1012, 1.5, 3, 1
1013, 2, 3, 1
1014, 2.5, 3, 1
1015, 3, 3, 1
1016, 3.5, 3, 1
1017, 4, 3, 1
1018, 4.5, 3, 1
1019, 5, 3, 1
1020, 5.5, 3, 1
1021, 6, 3, 1
1022, 6.5, 3, 1
1023, 7, 3, 1
1024, 7.5, 3, 1
1025, 8, 3, 1
1026, 8.5, 3, 1
1027, 9, 3, 1
1028, 9.5, 3, 1
1029, 10, 3, 1
1030, 0, 3.5, 1
1031, 0.5, 3.5, 1
1032, 1, 3.5, 1
1033, 1.5, 3.5, 1
1034, 2, 3.5, 1
1035, 2.5, 3.5, 1
1036, 3, 3.5, 1
1037, 3.5, 3.5, 1
1038, 4, 3.5, 1
1039, 4.5, 3.5, 1
1040, 5, 3.5, 1
1041, 5.5, 3.5, 1
1042, 6, 3.5, 1
1043, 6.5, 3.5, 1
1044, 7, 3.5, 1
1045, 7.5, 3.5, 1
1046, 8, 3.5, 1
1047, 8.5, 3.5, 1
1048, 9, 3.5, 1
1049, 9.5, 3.5, 1
1050, 10, 3.5, 1
1051, 0, 4, 1
1052, 0.5, 4, 1
1053, 1, 4, 1
1054, 1.5, 4, 1
1055, 2, 4, 1
1056, 2.5, 4, 1
1057, 3, 4, 1
1058, 3.5, 4, 1
1059, 4, 4, 1
1060, 4.5, 4, 1
1061, 5, 4, 1
1062, 5.5, 4, 1
1063, 6, 4, 1
1064, 6.5, 4, 1
1065, 7, 4, 1
1066, 7.5, 4, 1
1067, 8, 4, 1
1068, 8.5, 4, 1
1069, 9, 4, 1
1070, 9.5, 4, 1
1071, 10, 4, 1
1072, 0, 4.5, 1
1073, 0.5, 4.5, 1
1074, 1, 4.5, 1
1075, 1.5, 4.5, 1
1076, 2, 4.5, 1
1077, 2.5, 4.5, 1
1078, 3, 4.5, 1
1079, 3.5, 4.5, 1
1080, 4, 4.5, 1
1081, 4.5, 4.5, 1
1082, 5, 4.5, 1
1083, 5.5, 4.5, 1
1084, 6, 4.5, 1
1085, 6.5, 4.5, 1
1086, 7, 4.5, 1
1087, 7.5, 4.5, 1
1088, 8, 4.5, 1
1089, 8.5, 4.5, 1
1090, 9, 4.5, 1
1091, 9.5, 4.5, 1
1092, 10, 4.5, 1
1093, 0, 5, 1
1094, 0.5, 5, 1
1095, 1, 5, 1
1096, 1.5, 5, 1
1097, 2, 5, 1
1098, 2.5, 5, 1
1099, 3, 5, 1
1100, 3.5, 5, 1
1101, 4, 5, 1
1102, 4.5, 5, 1
1103, 5, 5, 1
1104, 5.5, 5, 1
1105, 6, 5, 1
1106, 6.5, 5, 1
1107, 7, 5, 1
1108, 7.5, 5, 1
1109, 8, 5, 1
1110, 8.5, 5, 1
1111, 9, 5, 1
1112, 9.5, 5, 1
1113, 10, 5, 1
1114, 0, 5.5, 1
1115, 0.5, 5.5, 1
1116, 1, 5.5, 1
1117, 1.5, 5.5, 1
1118, 2, 5.5, 1
1119, 2.5, 5.5, 1
1120, 3, 5.5, 1
1121, 3.5, 5.5, 1
1122, 4, 5.5, 1
1123, 4.5, 5.5, 1
1124, 5, 5.5, 1
1125, 5.5, 5.5, 1
1126, 6, 5.5, 1
1127, 6.5, 5.5, 1
1128, 7, 5.5, 1
1129, 7.5, 5.5, 1
1130, 8, 5.5, 1
1131, 8.5, 5.5, 1
1132, 9, 5.5, 1
1133, 9.5, 5.5, 1
1134, 10, 5.5, 1
1135, 0, 6, 1
1136, 0.5, 6, 1
1137, 1, 6, 1
1138, 1.5, 6, 1
1139, 2, 6, 1
1140, 2.5, 6, 1
1141, 3, 6, 1
1142, 3.5, 6, 1
1143, 4, 6, 1
1144, 4.5, 6, 1
1145, 5, 6, 1
1146, 5.5, 6, 1
1147, 6, 6, 1
1148, 6.5, 6, 1
1149, 7, 6, 1
1150, 7.5, 6, 1
1151, 8, 6, 1
1152, 8.5, 6, 1
1153, 9, 6, 1
1154, 9.5, 6, 1
1155, 10, 6, 1
1156, 0, 6.5, 1
1157, 0.5, 6.5, 1
1158, 1, 6.5, 1
1159, 1.5, 6.5, 1
1160, 2, 6.5, 1
1161, 2.5, 6.5, 1
1162, 3, 6.5, 1
1163, 3.5, 6.5, 1
1164, 4, 6.5, 1
1165, 4.5, 6.5, 1
1166, 5, 6.5, 1
1167, 5.5, 6.5, 1
1168, 6, 6.5, 1
1169, 6.5, 6.5, 1
1170, 7, 6.5, 1
1171, 7.5, 6.5, 1
1172, 8, 6.5, 1
1173, 8.5, 6.5, 1
1174, 9, 6.5, 1
1175, 9.5, 6.5, 1
1176, 10, 6.5, 1
1177, 0, 7, 1
1178, 0.5, 7, 1
1179, 1, 7, 1
1180, 1.5, 7, 1
1181, 2, 7, 1
1182, 2.5, 7, 1
1183, 3, 7, 1
1184, 3.5, 7, 1
1185, 4, 7, 1
1186, 4.5, 7, 1
1187, 5, 7, 1
1188, 5.5, 7, 1
1189, 6, 7, 1
1190, 6.5, 7, 1
1191, 7, 7, 1
1192, 7.5, 7, 1
1193, 8, 7, 1
1194, 8.5, 7, 1
1195, 9, 7, 1
1196, 9.5, 7, 1
1197, 10, 7, 1
1198, 0, 7.5, 1
1199, 0.5, 7.5, 1
1200, 1, 7.5, 1
1201, 1.5, 7.5, 1
1202, 2, 7.5, 1
1203, 2.5, 7.5, 1
1204, 3, 7.5, 1
1205, 3.5, 7.5, 1
1206, 4, 7.5, 1
1207, 4.5, 7.5, 1
1208, 5, 7.5, 1
1209, 5.5, 7.5, 1
1210, 6, 7.5, 1
1211, 6.5, 7.5, 1
1212, 7, 7.5, 1
1213, 7.5, 7.5, 1
1214, 8, 7.5, 1
1215, 8.5, 7.5, 1
1216, 9, 7.5, 1
1217, 9.5, 7.5, 1
1218, 10, 7.5, 1
1219, 0, 8, 1
1220, 0.5, 8, 1
1221, 1, 8, 1
1222, 1.5, 8, 1
1223, 2, 8, 1
1224, 2.5, 8, 1
1225, 3, 8, 1
1226, 3.5, 8, 1
1227, 4, 8, 1
1228, 4.5, 8, 1
1229, 5, 8, 1
1230, 5.5, 8, 1
1231, 6, 8, 1
1232, 6.5, 8, 1
1233, 7, 8, 1
1234, 7.5, 8, 1
1235, 8, 8, 1
1236, 8.5, 8, 1
1237, 9, 8, 1
1238, 9.5, 8, 1
1239, 10, 8, 1
1240, 0, 8.5, 1
1241, 0.5, 8.5, 1
1242, 1, 8.5, 1
1243, 1.5, 8.5, 1
1244, 2, 8.5, 1
1245, 2.5, 8.5, 1
1246, 3, 8.5, 1
1247, 3.5, 8.5, 1
1248, 4, 8.5, 1
1249, 4.5, 8.5, 1
1250, 5, 8.5, 1
1251, 5.5, 8.5, 1
1252, 6, 8.5, 1
1253, 6.5, 8.5, 1
1254, 7, 8.5, 1
1255, 7.5, 8.5, 1
1256, 8, 8.5, 1
1257, 8.5, 8.5, 1
1258, 9, 8.5, 1
1259, 9.5, 8.5, 1
1260, 10, 8.5, 1
1261, 0, 9, 1
1262, 0.5, 9, 1
1263, 1, 9, 1
1264, 1.5, 9, 1
1265, 2, 9, 1
1266, 2.5, 9, 1
1267, 3, 9, 1
1268, 3.5, 9, 1
1269, 4, 9, 1
1270, 4.5, 9, 1
1271, 5, 9, 1
1272, 5.5, 9, 1
1273, 6, 9, 1
1274, 6.5, 9, 1
1275, 7, 9, 1
1276, 7.5, 9, 1
1277, 8, 9, 1
1278, 8.5, 9, 1
1279, 9, 9, 1
1280, 9.5, 9, 1
1281, 10, 9, 1
1282, 0, 9.5, 1
1283, 0.5, 9.5, 1
1284, 1, 9.5, 1
1285, 1.5, 9.5, 1
1286, 2, 9.5, 1
1287, 2.5, 9.5, 1
1288, 3, 9.5, 1
1289, 3.5, 9.5, 1
1290, 4, 9.5, 1
1291, 4.5, 9.5, 1
1292, 5, 9.5, 1
1293, 5.5, 9.5, 1
1294, 6, 9.5, 1
1295, 6.5, 9.5, 1
1296, 7, 9.5, 1
1297, 7.5, 9.5, 1
1298, 8, 9.5, 1
1299, 8.5, 9.5, 1
1300, 9, 9.5, 1
1301, 9.5, 9.5, 1
1302, 10, 9.5, 1
1303, 0, 10, 1
1304, 0.5, 10, 1
1305, 1, 10, 1
1306, 1.5, 10, 1
1307, 2, 10, 1
1308, 2.5, 10, 1
1309, 3, 10, 1
1310, 3.5, 10, 1
1311, 4, 10, 1
1312, 4.5, 10, 1
1313, 5, 10, 1
1314, 5.5, 10, 1
1315, 6, 10, 1
1316, 6.5, 10, 1
1317, 7, 10, 1
1318, 7.5, 10, 1
1319, 8, 10, 1
1320, 8.5, 10, 1
1321, 9, 10, 1
1322, 9.5, 10, 1
1323, 10, 10, 1
1324, 0, 0, 1.5
1325, 0.5, 0, 1.5
1326, 1, 0, 1.5
1327, 1.5, 0, 1.5
1328, 2, 0, 1.5
1329, 2.5, 0, 1.5
1330, 3, 0, 1.5
1331, 3.5, 0, 1.5
1332, 4, 0, 1.5
1333, 4.5, 0, 1.5
1334, 5, 0, 1.5
1335, 5.5, 0, 1.5
1336, 6, 0, 1.5
1337, 6.5, 0, 1.5
1338, 7, 0, 1.5
1339, 7.5, 0, 1.5
1340, 8, 0, 1.5
1341, 8.5, 0, 1.5
1342, 9, 0, 1.5
1343, 9.5, 0, 1.5
1344, 10, 0, 1.5
1345, 0, 0.5, 1.5
1346, 0.5, 0.5, 1.5
1347, 1, 0.5, 1.5
1348, 1.5, 0.5, 1.5
1349, 2, 0.5, 1.5
1350, 2.5, 0.5, 1.5
1351, 3, 0.5, 1.5
1352, 3.5, 0.5, 1.5
1353, 4, 0.5, 1.5
1354, 4.5, 0.5, 1.5
1355, 5, 0.5, 1.5
1356, 5.5, 0.5, 1.5
1357, 6, 0.5, 1.5
1358, 6.5, 0.5, 1.5
1359, 7, 0.5, 1.5
1360, 7.5, 0.5, 1.5
1361, 8, 0.5, 1.5
1362, 8.5, 0.5, 1.5
1363, 9, 0.5, 1.5
1364, 9.5, 0.5, 1.5
1365, 10, 0.5, 1.5
1366, 0, 1, 1.5
1367, 0.5, 1, 1.5
1368, 1, 1, 1.5
1369, 1.5, 1, 1.5
1370, 2, 1, 1.5
1371, 2.5, 1, 1.5
1372, 3, 1, 1.5
1373, 3.5, 1, 1.5
1374, 4, 1, 1.5
1375, 4.5, 1, 1.5
1376, 5, 1, 1.5
1377, 5.5, 1, 1.5
1378, 6, 1, 1.5
1379, 6.5, 1, 1.5
1380, 7, 1, 1.5
1381, 7.5, 1, 1.5
1382, 8, 1, 1.5
1383, 8.5, 1, 1.5
1384, 9, 1, 1.5
1385, 9.5, 1, 1.5
1386, 10, 1, 1.5
1387, 0, 1.5, 1.5
1388, 0.5, 1.5, 1.5
1389, 1, 1.5, 1.5
1390, 1.5, 1.5, 1.5
1391, 2, 1.5, 1.5
1392, 2.5, 1.5, 1.5
1393, 3, 1.5, 1.5
1394, 3.5, 1.5, 1.5
1395, 4, 1.5, 1.5
1396, 4.5, 1.5, 1.5
1397, 5, 1.5, 1.5
1398, 5.5, 1.5, 1.5
1399, 6, 1.5, 1.5
1400, 6.5, 1.5, 1.5
1401, 7, 1.5, 1.5
1402, 7.5, 1.5, 1.5
1403, 8, 1.5, 1.5
1404, 8.5, 1.5, 1.5
1405, 9, 1.5, 1.5
1406, 9.5, 1.5, 1.5
1407, 10, 1.5, 1.5
1408, 0, 2, 1.5
1409, 0.5, 2, 1.5
1410, 1, 2, 1.5
1411, 1.5, 2, 1.5
1412, 2, 2, 1.5
1413, 2.5, 2, 1.5
1414, 3, 2, 1.5
1415, 3.5, 2, 1.5
1416, 4, 2, 1.5
1417, 4.5, 2, 1.5
1418, 5, 2, 1.5
1419, 5.5, 2, 1.5
1420, 6, 2, 1.5
1421, 6.5, 2, 1.5
1422, 7, 2, 1.5
1423, 7.5, 2, 1.5
1424, 8, 2, 1.5
1425, 8.5, 2, 1.5
1426, 9, 2, 1.5
1427, 9.5, 2, 1.5
1428, 10, 2, 1.5
1429, 0, 2.5, 1.5
1430, 0.5, 2.5, 1.5
1431, 1, 2.5, 1.5
1432, 1.5, 2.5, 1.5
1433, 2, 2.5, 1.5
1434, 2.5, 2.5, 1.5
1435, 3, 2.5, 1.5
1436, 3.5, 2.5, 1.5
1437, 4, 2.5, 1.5
1438, 4.5, 2.5, 1.5
1439, 5, 2.5, 1.5
1440, 5.5, 2.5, 1.5
1441, 6, 2.5, 1.5
1442, 6.5, 2.5, 1.5
1443, 7, 2.5, 1.5
1444, 7.5, 2.5, 1.5
1445, 8, 2.5, 1.5
1446, 8.5, 2.5, 1.5
1447, 9, 2.5, 1.5
1448, 9.5, 2.5, 1.5
1449, 10, 2.5, 1.5
1450, 0, 3, 1.5
1451, 0.5, 3, 1.5
1452, 1, 3, 1.5
1453, 1.5, 3, 1.5
1454, 2, 3, 1.5
1455, 2.5, 3, 1.5
1456, 3, 3, 1.5
1457, 3.5, 3, 1.5
1458, 4, 3, 1.5
1459, 4.5, 3, 1.5
1460, 5, 3, 1.5
1461, 5.5, 3, 1.5
1462, 6, 3, 1.5
1463, 6.5, 3, 1.5
1464, 7, 3, 1.5
1465, 7.5, 3, 1.5
1466, 8, 3, 1.5
1467, 8.5, 3, 1.5
1468, 9, 3, 1.5
1469, 9.5, 3, 1.5
1470, 10, 3, 1.5
1471, 0, 3.5, 1.5
1472, 0.5, 3.5, 1.5
1473, 1, 3.5, 1.5
1474, 1.5, 3.5, 1.5
1475, 2, 3.5, 1.5
1476, 2.5, 3.5, 1.5
1477, 3, 3.5, 1.5
1478, 3.5, 3.5, 1.5
1479, 4, 3.5, 1.5
1480, 4.5, 3.5, 1.5
1481, 5, 3.5, 1.5
1482, 5.5, 3.5, 1.5
1483, 6, 3.5, 1.5
1484, 6.5, 3.5, 1.5
1485, 7, 3.5, 1.5
1486, 7.5, 3.5, 1.5
1487, 8, 3.5, 1.5
1488, 8.5, 3.5, 1.5
1489, 9, 3.5, 1.5
1490, 9.5, 3.5, 1.5
1491, 10, 3.5, 1.5
1492, 0, 4, 1.5
1493, 0.5, 4, 1.5
1494, 1, 4, 1.5
1495, 1.5, 4, 1.5
1496, 2, 4, 1.5
1497, 2.5, 4, 1.5
1498, 3, 4, 1.5
1499, 3.5, 4, 1.5
1500, 4, 4, 1.5
1501, 4.5, 4, 1.5
1502, 5, 4, 1.5
1503, 5.5, 4, 1.5
1504, 6, 4, 1.5
1505, 6.5, 4, 1.5
1506, 7, 4, 1.5
1507, 7.5, 4, 1.5
1508, 8, 4, 1.5
1509, 8.5, 4, 1.5
1510, 9, 4, 1.5
1511, 9.5, 4, 1.5
1512, 10, 4, 1.5
1513, 0, 4.5, 1.5
1514, 0.5, 4.5, 1.5
1515, 1, 4.5, 1.5
1516, 1.5, 4.5, 1.5
1517, 2, 4.5, 1.5
1518, 2.5, 4.5, 1.5
1519, 3, 4.5, 1.5
1520, 3.5, 4.5, 1.5
1521, 4, 4.5, 1.5
1522, 4.5, 4.5, 1.5
1523, 5, 4.5, 1.5
1524, 5.5, 4.5, 1.5
1525, 6, 4.5, 1.5
1526, 6.5, 4.5, 1.5
1527, 7, 4.5, 1.5
1528, 7.5, 4.5, 1.5
1529, 8, 4.5, 1.5
1530, 8.5, 4.5, 1.5
1531, 9, 4.5, 1.5
1532, 9.5, 4.5, 1.5
1533, 10, 4.5, 1.5
1534, 0, 5, 1.5
1535, 0.5, 5, 1.5
1536, 1, 5, 1.5
1537, 1.5, 5, 1.5
1538, 2, 5, 1.5
1539, 2.5, 5, 1.5
1540, 3, 5, 1.5
1541, 3.5, 5, 1.5
1542, 4, 5, 1.5
1543, 4.5, 5, 1.5
1544, 5, 5, 1.5
1545, 5.5, 5, 1.5
1546, 6, 5, 1.5
1547, 6.5, 5, 1.5
1548, 7, 5, 1.5
1549, 7.5, 5, 1.5
1550, 8, 5, 1.5
1551, 8.5, 5, 1.5
1552, 9, 5, 1.5
1553, 9.5, 5, 1.5
1554, 10, 5, 1.5
1555, 0, 5.5, 1.5
1556, 0.5, 5.5, 1.5
1557, 1, 5.5, 1.5
1558, 1.5, 5.5, 1.5
1559, 2, 5.5, 1.5
1560, 2.5, 5.5, 1.5
1561, 3, 5.5, 1.5
1562, 3.5, 5.5, 1.5
1563, 4, 5.5, 1.5
1564, 4.5, 5.5, 1.5
1565, 5, 5.5, 1.5
1566, 5.5, 5.5, 1.5
1567, 6, 5.5, 1.5
1568, 6.5, 5.5, 1.5
1569, 7, 5.5, 1.5
1570, 7.5, 5.5, 1.5
1571, 8, 5.5, 1.5
1572, 8.5, 5.5, 1.5
1573, 9, 5.5, 1.5
1574, 9.5, 5.5, 1.5
1575, 10, 5.5, 1.5
1576, 0, 6, 1.5
1577, 0.5, 6, 1.5
1578, 1, 6, 1.5
1579, 1.5, 6, 1.5
1580, 2, 6, 1.5
1581, 2.5, 6, 1.5
1582, 3, 6, 1.5
1583, 3.5, 6, 1.5
1584, 4, 6, 1.5
1585, 4.5, 6, 1.5
1586, 5, 6, 1.5
1587, 5.5, 6, 1.5
1588, 6, 6, 1.5
1589, 6.5, 6, 1.5
1590, 7, 6, 1.5
1591, 7.5, 6, 1.5
1592, 8, 6, 1.5
1593, 8.5, 6, 1.5
1594, 9, 6, 1.5
1595, 9.5, 6, 1.5
1596, 10, 6, 1.5
1597, 0, 6.5, 1.5
1598, 0.5, 6.5, 1.5
1599, 1, 6.5, 1.5
1600, 1.5, 6.5, 1.5
1601, 2, 6.5, 1.5
1602, 2.5, 6.5, 1.5
1603, 3, 6.5, 1.5
1604, 3.5, 6.5, 1.5
1605, 4, 6.5, 1.5
1606, 4.5, 6.5, 1.5
1607, 5, 6.5, 1.5
1608, 5.5, 6.5, 1.5
1609, 6, 6.5, 1.5
1610, 6.5, 6.5, 1.5
1611, 7, 6.5, 1.5
1612, 7.5, 6.5, 1.5
1613, 8, 6.5, 1.5
1614, 8.5, 6.5, 1.5
1615, 9, 6.5, 1.5
1616, 9.5, 6.5, 1.5
1617, 10, 6.5, 1.5
1618, 0, 7, 1.5
1619, 0.5, 7, 1.5
1620, 1, 7, 1.5
1621, 1.5, 7, 1.5
1622, 2, 7, 1.5
1623, 2.5, 7, 1.5
1624, 3, 7, 1.5
1625, 3.5, 7, 1.5
1626, 4, 7, 1.5
1627, 4.5, 7, 1.5
1628, 5, 7, 1.5
1629, 5.5, 7, 1.5
1630, 6, 7, 1.5
1631, 6.5, 7, 1.5
1632, 7, 7, 1.5
1633, 7.5, 7, 1.5
1634, 8, 7, 1.5
1635, 8.5, 7, 1.5
1636, 9, 7, 1.5
1637, 9.5, 7, 1.5
1638, 10, 7, 1.5
1639, 0, 7.5, 1.5
1640, 0.5, 7.5, 1.5
1641, 1, 7.5, 1.5
1642, 1.5, 7.5, 1.5
1643, 2, 7.5, 1.5
1644, 2.5, 7.5, 1.5
1645, 3, 7.5, 1.5
1646, 3.5, 7.5, 1.5
1647, 4, 7.5, 1.5
1648, 4.5, 7.5, 1.5
1649, 5, 7.5, 1.5
1650, 5.5, 7.5, 1.5
1651, 6, 7.5, 1.5
1652, 6.5, 7.5, 1.5
1653, 7, 7.5, 1.5
1654, 7.5, 7.5, 1.5
1655, 8, 7.5, 1.5
1656, 8.5, 7.5, 1.5
1657, 9, 7.5, 1.5
1658, 9.5, 7.5, 1.5
1659, 10, 7.5, 1.5
1660, 0, 8, 1.5
1661, 0.5, 8, 1.5
1662, 1, 8, 1.5
1663, 1.5, 8, 1.5
1664, 2, 8, 1.5
1665, 2.5, 8, 1.5
1666, 3, 8, 1.5
1667, 3.5, 8, 1.5
1668, 4, 8, 1.5
1669, 4.5, 8, 1.5
1670, 5, 8, 1.5
1671, 5.5, 8, 1.5
1672, 6, 8, 1.5
1673, 6.5, 8, 1.5
1674, 7, 8, 1.5
1675, 7.5, 8, 1.5
1676, 8, 8, 1.5
1677, 8.5, 8, 1.5
1678, 9, 8, 1.5
1679, 9.5, 8, 1.5
1680, 10, 8, 1.5
1681, 0, 8.5, 1.5
1682, 0.5, 8.5, 1.5
1683, 1, 8.5, 1.5
1684, 1.5, 8.5, 1.5
1685, 2, 8.5, 1.5
1686, 2.5, 8.5, 1.5
1687, 3, 8.5, 1.5
1688, 3.5, 8.5, 1.5
1689, 4, 8.5, 1.5
1690, 4.5, 8.5, 1.5
1691, 5, 8.5, 1.5
1692, 5.5, 8.5, 1.5
1693, 6, 8.5, 1.5
1694, 6.5, 8.5, 1.5
1695, 7, 8.5, 1.5
1696, 7.5, 8.5, 1.5
1697, 8, 8.5, 1.5
1698, 8.5, 8.5, 1.5
1699, 9, 8.5, 1.5
1700, 9.5, 8.5, 1.5
1701, 10, 8.5, 1.5
1702, 0, 9, 1.5
1703, 0.5, 9, 1.5
1704, 1, 9, 1.5
1705, 1.5, 9, 1.5
1706, 2, 9, 1.5
1707, 2.5, 9, 1.5
1708, 3, 9, 1.5
1709, 3.5, 9, 1.5
1710, 4, 9, 1.5
1711, 4.5, 9, 1.5
1712, 5, 9, 1.5
1713, 5.5, 9, 1.5
1714, 6, 9, 1.5
1715, 6.5, 9, 1.5
1716, 7, 9, 1.5
1717, 7.5, 9, 1.5
1718, 8, 9, 1.5
1719, 8.5, 9, 1.5
1720, 9, 9, 1.5
1721, 9.5, 9, 1.5
1722, 10, 9, 1.5
1723, 0, 9.5, 1.5
1724, 0.5, 9.5, 1.5
1725, 1, 9.5, 1.5
1726, 1.5, 9.5, 1.5
1727, 2, 9.5, 1.5
1728, 2.5, 9.5, 1.5
1729, 3, 9.5, 1.5
1730, 3.5, 9.5, 1.5
1731, 4, 9.5, 1.5
1732, 4.5, 9.5, 1.5
1733, 5, 9.5, 1.5
1734, 5.5, 9.5, 1.5
1735, 6, 9.5, 1.5
1736, 6.5, 9.5, 1.5
1737, 7, 9.5, 1.5
1738, 7.5, 9.5, 1.5
1739, 8, 9.5, 1.5
1740, 8.5, 9.5, 1.5
1741, 9, 9.5, 1.5
1742, 9.5, 9.5, 1.5
1743, 10, 9.5, 1.5
1744, 0, 10, 1.5
1745, 0.5, 10, 1.5
1746, 1, 10, 1.5
1747, 1.5, 10, 1.5
1748, 2, 10, 1.5
1749, 2.5, 10, 1.5
1750, 3, 10, 1.5
1751, 3.5, 10, 1.5
1752, 4, 10, 1.5
1753, 4.5, 10, 1.5
1754, 5, 10, 1.5
1755, 5.5, 10, 1.5
1756, 6, 10, 1.5
1757, 6.5, 10, 1.5
1758, 7, 10, 1.5
1759, 7.5, 10, 1.5
1760, 8, 10, 1.5
1761, 8.5, 10, 1.5
1762, 9, 10, 1.5
1763, 9.5, 10, 1.5
1764, 10, 10, 1.5
1765, 0, 0, 2
1766, 0.5, 0, 2
1767, 1, 0, 2
1768, 1.5, 0, 2
1769, 2, 0, 2
1770, 2.5, 0, 2
1771, 3, 0, 2
1772, 3.5, 0, 2
1773, 4, 0, 2
1774, 4.5, 0, 2
1775, 5, 0, 2
1776, 5.5, 0, 2
1777, 6, 0, 2
1778, 6.5, 0, 2
1779, 7, 0, 2
1780, 7.5, 0, 2
1781, 8, 0, 2
1782, 8.5, 0, 2
1783, 9, 0, 2
1784, 9.5, 0, 2
1785, 10, 0, 2
1786, 0, 0.5, 2
1787, 0.5, 0.5, 2
1788, 1, 0.5, 2
1789, 1.5, 0.5, 2
1790, 2, 0.5, 2
1791, 2.5, 0.5, 2
1792, 3, 0.5, 2
1793, 3.5, 0.5, 2
1794, 4, 0.5, 2
1795, 4.5, 0.5, 2
1796, 5, 0.5, 2
1797, 5.5, 0.5, 2
1798, 6, 0.5, 2
1799, 6.5, 0.5, 2
1800, 7, 0.5, 2
1801, 7.5, 0.5, 2
1802, 8, 0.5, 2
1803, 8.5, 0.5, 2
1804, 9, 0.5, 2
1805, 9.5, 0.5, 2
1806, 10, 0.5, 2
1807, 0, 1, 2
1808, 0.5, 1, 2
1809, 1, 1, 2
1810, 1.5, 1, 2
1811, 2, 1, 2
1812, 2.5, 1, 2
1813, 3, 1, 2
1814, 3.5, 1, 2
1815, 4, 1, 2
1816, 4.5, 1, 2
1817, 5, 1, 2
1818, 5.5, 1, 2
1819, 6, 1, 2
1820, 6.5, 1, 2
1821, 7, 1, 2
1822, 7.5, 1, 2
1823, 8, 1, 2
1824, 8.5, 1, 2
1825, 9, 1, 2
1826, 9.5, 1, 2
1827, 10, 1, 2
1828, 0, 1.5, 2
1829, 0.5, 1.5, 2
1830, 1, 1.5, 2
1831, 1.5, 1.5, 2
1832, 2, 1.5, 2
1833, 2.5, 1.5, 2
1834, 3, 1.5, 2
1835, 3.5, 1.5, 2
1836, 4, 1.5, 2
1837, 4.5, 1.5, 2
1838, 5, 1.5, 2
1839, 5.5, 1.5, 2
1840, 6, 1.5, 2
1841, 6.5, 1.5, 2
1842, 7, 1.5, 2
1843, 7.5, 1.5, 2
1844, 8, 1.5, 2
1845, 8.5, 1.5, 2
1846, 9, 1.5, 2
1847, 9.5, 1.5, 2
1848, 10, 1.5, 2
1849, 0, 2, 2
1850, 0.5, 2, 2
1851, 1, 2, 2
1852, 1.5, 2, 2
1853, 2, 2, 2
1854, 2.5, 2, 2
1855, 3, 2, 2
1856, 3.5, 2, 2
1857, 4, 2, 2
1858, 4.5, 2, 2
1859, 5, 2, 2
1860, 5.5, 2, 2
1861, 6, 2, 2
1862, 6.5, 2, 2
1863, 7, 2, 2
1864, 7.5, 2, 2
1865, 8, 2, 2
1866, 8.5, 2, 2
1867, 9, 2, 2
1868, 9.5, 2, 2
1869, 10, 2, 2
1870, 0, 2.5, 2
1871, 0.5, 2.5, 2
1872, 1, 2.5, 2
1873, 1.5, 2.5, 2
1874, 2, 2.5, 2
1875, 2.5, 2.5, 2
1876, 3, 2.5, 2
1877, 3.5, 2.5, 2
1878, 4, 2.5, 2
1879, 4.5, 2.5, 2
1880, 5, 2.5, 2
1881, 5.5, 2.5, 2
1882, 6, 2.5, 2
1883, 6.5, 2.5, 2
1884, 7, 2.5, 2
1885, 7.5, 2.5, 2
1886, 8, 2.5, 2
1887, 8.5, 2.5, 2
1888, 9, 2.5, 2
1889, 9.5, 2.5, 2
1890, 10, 2.5, 2
1891, 0, 3, 2
1892, 0.5, 3, 2
1893, 1, 3, 2
1894, 1.5, 3, 2
1895, 2, 3, 2
1896, 2.5, 3, 2
1897, 3, 3, 2
1898, 3.5, 3, 2
1899, 4, 3, 2
1900, 4.5, 3, 2
1901, 5, 3, 2
1902, 5.5, 3, 2
1903, 6, 3, 2
1904, 6.5, 3, 2
1905, 7, 3, 2
1906, 7.5, 3, 2
1907, 8, 3, 2
1908, 8.5, 3, 2
1909, 9, 3, 2
1910, 9.5, 3, 2
1911, 10, 3, 2
1912, 0, 3.5, 2
1913, 0.5, 3.5, 2
1914, 1, 3.5, 2
1915, 1.5, 3.5, 2
1916, 2, 3.5, 2
1917, 2.5, 3.5, 2
1918, 3, 3.5, 2
1919, 3.5, 3.5, 2
1920, 4, 3.5, 2
1921, 4.5, 3.5, 2
1922, 5, 3.5, 2
1923, 5.5, 3.5, 2
1924, 6, 3.5, 2
1925, 6.5, 3.5, 2
1926, 7, 3.5, 2
1927, 7.5, 3.5, 2
1928, 8, 3.5, 2
1929, 8.5, 3.5, 2
1930, 9, 3.5, 2
1931, 9.5, 3.5, 2
1932, 10, 3.5, 2
1933, 0, 4, 2
1934, 0.5, 4, 2
1935, 1, 4, 2
1936, 1.5, 4, 2
1937, 2, 4, 2
1938, 2.5, 4, 2
1939, 3, 4, 2
1940, 3.5, 4, 2
1941, 4, 4, 2
1942, 4.5, 4, 2
1943, 5, 4, 2
1944, 5.5, 4, 2
1945, 6, 4, 2
1946, 6.5, 4, 2
1947, 7, 4, 2
1948, 7.5, 4, 2
1949, 8, 4, 2
1950, 8.5, 4, 2
1951, 9, 4, 2
1952, 9.5, 4, 2
1953, 10, 4, 2
1954, 0, 4.5, 2
1955, 0.5, 4.5, 2
1956, 1, 4.5, 2
1957, 1.5, 4.5, 2
1958, 2, 4.5, 2
1959, 2.5, 4.5, 2
1960, 3, 4.5, 2
1961, 3.5, 4.5, 2
1962, 4, 4.5, 2
1963, 4.5, 4.5, 2
1964, 5, 4.5, 2
1965, 5.5, 4.5, 2
1966, 6, 4.5, 2
1967, 6.5, 4.5, 2
1968, 7, 4.5, 2
1969, 7.5, 4.5, 2
1970, 8, 4.5, 2
1971, 8.5, 4.5, 2
1972, 9, 4.5, 2
1973, 9.5, 4.5, 2
1974, 10, 4.5, 2
1975, 0, 5, 2
1976, 0.5, 5, 2
1977, 1, 5, 2
1978, 1.5, 5, 2
1979, 2, 5, 2
1980, 2.5, 5, 2
1981, 3, 5, 2
1982, 3.5, 5, 2
1983, 4, 5, 2
1984, 4.5, 5, 2
1985, 5, 5, 2
1986, 5.5, 5, 2
1987, 6, 5, 2
1988, 6.5, 5, 2
1989, 7, 5, 2
1990, 7.5, 5, 2
1991, 8, 5, 2
1992, 8.5, 5, 2
1993, 9, 5, 2
1994, 9.5, 5, 2
1995, 10, 5, 2
1996, 0, 5.5, 2
1997, 0.5, 5.5, 2
1998, 1, 5.5, 2
1999, 1.5, 5.5, 2
2000, 2, 5.5, 2
2001, 2.5, 5.5, 2
2002, 3, 5.5, 2
2003, 3.5, 5.5, 2
2004, 4, 5.5, 2
2005, 4.5, 5.5, 2
2006, 5, 5.5, 2
2007, 5.5, 5.5, 2
2008, 6, 5.5, 2
2009, 6.5, 5.5, 2
2010, 7, 5.5, 2
2011, 7.5, 5.5, 2
2012, 8, 5.5, 2
2013, 8.5, 5.5, 2
2014, 9, 5.5, 2
2015, 9.5, 5.5, 2
2016, 10, 5.5, 2
2017, 0, 6, 2
2018, 0.5, 6, 2
2019, 1, 6, 2
2020, 1.5, 6, 2
2021, 2, 6, 2
2022, 2.5, 6, 2
2023, 3, 6, 2
2024, 3.5, 6, 2
2025, 4, 6, 2
2026, 4.5, 6, 2
2027, 5, 6, 2
2028, 5.5, 6, 2
2029, 6, 6, 2
2030, 6.5, 6, 2
2031, 7, 6, 2
2032, 7.5, 6, 2
2033, 8, 6, 2
2034, 8.5, 6, 2
2035, 9, 6, 2
2036, 9.5, 6, 2
2037, 10, 6, 2
2038, 0, 6.5, 2
2039, 0.5, 6.5, 2
2040, 1, 6.5, 2
2041, 1.5, 6.5, 2
2042, 2, 6.5, 2
2043, 2.5, 6.5, 2
2044, 3, 6.5, 2
2045, 3.5, 6.5, 2
2046, 4, 6.5, 2
2047, 4.5, 6.5, 2
2048, 5, 6.5, 2
2049, 5.5, 6.5, 2
2050, 6, 6.5, 2
2051, 6.5, 6.5, 2
2052, 7, 6.5, 2
2053, 7.5, 6.5, 2
2054, 8, 6.5, 2
2055, 8.5, 6.5, 2
2056, 9, 6.5, 2
2057, 9.5, 6.5, 2
2058, 10, 6.5, 2
2059, 0, 7, 2
2060, 0.5, 7, 2
2061, 1, 7, 2
2062, 1.5, 7, 2
2063, 2, 7, 2
2064, 2.5, 7, 2
2065, 3, 7, 2
2066, 3.5, 7, 2
2067, 4, 7, 2
2068, 4.5, 7, 2
2069, 5, 7, 2
2070, 5.5, 7, 2
2071, 6, 7, 2
2072, 6.5, 7, 2
2073, 7, 7, 2
2074, 7.5, 7, 2
2075, 8, 7, 2
2076, 8.5, 7, 2
2077, 9, 7, 2
2078, 9.5, 7, 2
2079, 10, 7, 2
2080, 0, 7.5, 2
2081, 0.5, 7.5, 2
2082, 1, 7.5, 2
2083, 1.5, 7.5, 2
2084, 2, 7.5, 2
2085, 2.5, 7.5, 2
2086, 3, 7.5, 2
2087, 3.5, 7.5, 2
2088, 4, 7.5, 2
2089, 4.5, 7.5, 2
2090, 5, 7.5, 2
2091, 5.5, 7.5, 2
2092, 6, 7.5, 2
2093, 6.5, 7.5, 2
2094, 7, 7.5, 2
2095, 7.5, 7.5, 2
2096, 8, 7.5, 2
2097, 8.5, 7.5, 2
2098, 9, 7.5, 2
2099, 9.5, 7.5, 2
2100, 10, 7.5, 2
2101, 0, 8, 2
2102, 0.5, 8, 2
2103, 1, 8, 2
2104, 1.5, 8, 2
2105, 2, 8, 2
2106, 2.5, 8, 2
2107, 3, 8, 2
2108, 3.5, 8, 2
2109, 4, 8, 2
2110, 4.5, 8, 2
2111, 5, 8, 2
2112, 5.5, 8, 2
2113, 6, 8, 2
2114, 6.5, 8, 2
2115, 7, 8, 2
2116, 7.5, 8, 2
2117, 8, 8, 2
2118, 8.5, 8, 2
2119, 9, 8, 2
2120, 9.5, 8, 2
2121, 10, 8, 2
2122, 0, 8.5, 2
2123, 0.5, 8.5, 2
2124, 1, 8.5, 2
2125, 1.5, 8.5, 2
2126, 2, 8.5, 2
2127, 2.5, 8.5, 2
2128, 3, 8.5, 2
2129, 3.5, 8.5, 2
2130, 4, 8.5, 2
2131, 4.5, 8.5, 2
2132, 5, 8.5, 2
2133, 5.5, 8.5, 2
2134, 6, 8.5, 2
2135, 6.5, 8.5, 2
2136, 7, 8.5, 2
2137, 7.5, 8.5, 2
2138, 8, 8.5, 2
2139, 8.5, 8.5, 2
2140, 9, 8.5, 2
2141, 9.5, 8.5, 2
2142, 10, 8.5, 2
2143, 0, 9, 2
2144, 0.5, 9, 2
2145, 1, 9, 2
2146, 1.5, 9, 2
2147, 2, 9, 2
2148, 2.5, 9, 2
2149, 3, 9, 2
2150, 3.5, 9, 2
2151, 4, 9, 2
2152, 4.5, 9, 2
2153, 5, 9, 2
2154, 5.5, 9, 2
2155, 6, 9, 2
2156, 6.5, 9, 2
2157, 7, 9, 2
2158, 7.5, 9, 2
2159, 8, 9, 2
2160, 8.5, 9, 2
2161, 9, 9, 2
2162, 9.5, 9, 2
2163, 10, 9, 2
2164, 0, 9.5, 2
2165, 0.5, 9.5, 2
2166, 1, 9.5, 2
2167, 1.5, 9.5, 2
2168, 2, 9.5, 2
2169, 2.5, 9.5, 2
2170, 3, 9.5, 2
2171, 3.5, 9.5, 2
2172, 4, 9.5, 2
2173, 4.5, 9.5, 2
2174, 5, 9.5, 2
2175, 5.5, 9.5, 2
2176, 6, 9.5, 2
2177, 6.5, 9.5, 2
2178, 7, 9.5, 2
2179, 7.5, 9.5, 2
2180, 8, 9.5, 2
2181, 8.5, 9.5, 2
2182, 9, 9.5, 2
2183, 9.5, 9.5, 2
2184, 10, 9.5, 2
2185, 0, 10, 2
2186, 0.5, 10, 2
2187, 1, 10, 2
2188, 1.5, 10, 2
2189, 2, 10, 2
2190, 2.5, 10, 2
2191, 3, 10, 2
2192, 3.5, 10, 2
2193, 4, 10, 2
2194, 4.5, 10, 2
2195, 5, 10, 2
2196, 5.5, 10, 2
2197, 6, 10, 2
2198, 6.5, 10, 2
2199, 7, 10, 2
2200, 7.5, 10, 2
2201, 8, 10, 2
2202, 8.5, 10, 2
2203, 9, 10, 2
2204, 9.5, 10, 2
2205, 10, 10, 2
*Element, type=C3D8R, elset=HOST
1, 1, 2, 23, 22, 442, 443, 464, 463
2, 2, 3, 24, 23, 443, 444, 465, 464
3, 3, 4, 25, 24, 444, 445, 466, 465
4, 4, 5, 26, 25, 445, 446, 467, 466
5, 5, 6, 27, 26, 446, 447, 468, 467
6, 6, 7, 28, 27, 447, 448, 469, 468
7, 7, 8, 29, 28, 448, 449, 470, 469
8, 8, 9, 30, 29, 449, 450, 471, 470
9, 9, 10, 31, 30, 450, 451, 472, 471
10, 10, 11, 32, 31, 451, 452, 473, 472
11, 11, 12, 33, 32, 452, 453, 474, 473
12, 12, 13, 34, 33, 453, 454, 475, 474
13, 13, 14, 35, 34, 454, 455, 476, 475
14, 14, 15, 36, 35, 455, 456, 477, 476
15, 15, 16, 37, 36, 456, 457, 478, 477
16, 16, 17, 38, 37, 457, 458, 479, 478
17, 17, 18, 39, 38, 458, 459, 480, 479
18, 18, 19, 40, 39, 459, 460, 481, 480
19, 19, 20, 41, 40, 460, 461, 482, 481
20, 20, 21, 42, 41, 461, 462, 483, 482
21, 22, 23, 44, 43, 463, 464, 485, 484
22, 23, 24, 45, 44, 464, 465, 486, 485
23, 24, 25, 46, 45, 465, 466, 487, 486
24, 25, 26, 47, 46, 466, 467, 488, 487
25, 26, 27, 48, 47, 467, 468, 489, 488
26, 27, 28, 49, 48, 468, 469, 490, 489
27, 28, 29, 50, 49, 469, 470, 491, 490
28, 29, 30, 51, 50, 470, 471, 492, 491
29, 30, 31, 52, 51, 471, 472, 493, 492
30, 31, 32, 53, 52, 472, 473, 494, 493
31, 32, 33, 54, 53, 473, 474, 495, 494
32, 33, 34, 55, 54, 474, 475, 496, 495
33, 34, 35, 56, 55, 475, 476, 497, 496
34, 35, 36, 57, 56, 476, 477, 498, 497
35, 36, 37, 58, 57, 477, 478, 499, 498
36, 37, 38, 59, 58, 478, 479, 500, 499
37, 38, 39, 60, 59, 479, 480, 501, 500
38, 39, 40, 61, 60, 480, 481, 502, 501
39, 40, 41, 62, 61, 481, 482, 503, 502
40, 41, 42, 63, 62, 482, 483, 504, 503
41, 43, 44, 65, 64, 484, 485, 506, 505
42, 44, 45, 66, 65, 485, 486, 507, 506
43, 45, 46, 67, 66, 486, 487, 508, 507
44, 46, 47, 68, 67, 487, 488, 509, 508
45, 47, 48, 69, 68, 488, 489, 510, 509
46, 48, 49, 70, 69, 489, 490, 511, 510
47, 49, 50, 71, 70, 490, 491, 512, 511
48, 50, 51, 72, 71, 491, 492, 513, 512
49, 51, 52, 73, 72, 492, 493, 514, 513
50, 52, 53, 74, 73, 493, 494, 515, 514
51, 53, 54, 75, 74, 494, 495, 516, 515
52, 54, 55, 76, 75, 495, 496, 517, 516
53, 55, 56, 77, 76, 496, 497, 518, 517
54, 56, 57, 78, 77, 497, 498, 519, 518
55, 57, 58, 79, 78, 498, 499, 520, 519
56, 58, 59, 80, 79, 499, 500, 521, 520
57, 59, 60, 81, 80, 500, 501, 522, 521
58, 60, 61, 82, 81, 501, 502, 523, 522
59, 61, 62, 83, 82, 502, 503, 524, 523
60, 62, 63, 84, 83, 503, 504, 525, 524
61, 64, 65, 86, 85, 505, 506, 527, 526
62, 65, 66, 87, 86, 506, 507, 528, 527
63, 66, 67, 88, 87, 507, 508, 529, 528
64, 67, 68, 89, 88, 508, 509, 530, 529
65, 68, 69, 90, 89, 509, 510, 531, 530
66, 69, 70, 91, 90, 510, 511, 532, 531
67, 70, 71, 92, 91, 511, 512, 533, 532
68, 71, 72, 93, 92, 512, 513, 534, 533
69, 72, 73, 94, 93, 513, 514, 535, 534
70, 73, 74, 95, 94, 514, 515, 536, 535
71, 74, 75, 96, 95, 515, 516, 537, 536
72, 75, 76, 97, 96, 516, 517, 538, 537
73, 76, 77, 98, 97, 517, 518, 539, 538
74, 77, 78, 99, 98, 518, 519, 540, 539
75, 78, 79, 100, 99, 519, 520, 541, 540
76, 79, 80, 101, 100, 520, 521, 542, 541
77, 80, 81, 102, 101, 521, 522, 543, 542
78, 81, 82, 103, 102, 522, 523, 544, 543
79, 82, 83, 104, 103, 523, 524, 545, 544
80, 83, 84, 105, 104, 524, 525, 546, 545
81, 85, 86, 107, 106, 526, 527, 548, 547
82, 86, 87, 108, 107, 527, 528, 549, 548
83, 87, 88, 109, 108, 528, 529, 550, 549
84, 88, 89, 110, 109, 529, 530, 551, 550
85, 89, 90, 111, 110, 530, 531, 552, 551
86, 90, 91, 112, 111, 531, 532, 553, 552
87, 91, 92, 113, 112, 532, 533, 554, 553
88, 92, 93, 114, 113, 533, 534, 555, 554
89, 93, 94, 115, 114, 534, 535, 556, 555
90, 94, 95, 116, 115, 535, 536, 557, 556
91, 95, 96, 117, 116, 536, 537, 558, 557
92, 96, 97, 118, 117, 537, 538, 559, 558
93, 97, 98, 119, 118, 538, 539, 560, 559
94, 98, 99, 120, 119, 539, 540, 561, 560
95, 99, 100, 121, 120, 540, 541, 562, 561
96, 100, 101, 122, 121, 541, 542, 563, 562
97, 101, 102, 123, 122, 542, 543, 564, 563
98, 102, 103, 124, 123, 543, 544, 565, 564
99, 103, 104, 125, 124, 544, 545, 566, 565
100, 104, 105, 126, 125, 545, 546, 567, 566
101, 106, 107, 128, 127, 547, 548, 569, 568
102, 107, 108, 129, 128, 548, 549, 570, 569
103, 108, 109, 130, 129, 549, 550, 571, 570
104, 109, 110, 131, 130, 550, 551, 572, 571
105, 110, 111, 132, 131, 551, 552, 573, 572
106, 111, 112, 133, 132, 552, 553, 574, 573
107, 112, 113, 134, 133, 553, 554, 575, 574
108, 113, 114, 135, 134, 554, 555, 576, 575
109, 114, 115, 136, 135, 555, 556, 577, 576
110, 115, 116, 137, 136, 556, 557, 578, 577
111, 116, 117, 138, 137, 557, 558, 579, 578
112, 117, 118, 139, 138, 558, 559, 580, 579
113, 118, 119, 140, 139, 559, 560, 581, 580
114, 119, 120, 141, 140, 560, 561, 582, 581
115, 120, 121, 142, 141, 561, 562, 583, 582
116, 121, 122, 143, 142, 562, 563, 584, 583
117, 122, 123, 144, 143, 563, 564, 585, 584
118, 123, 124, 145, 144, 564, 565, 586, 585
119, 124, 125, 146, 145, 565, 566, 587, 586
120, 125, 126, 147, 146, 566, 567, 588, 587
121, 127, 128, 149, 148, 568, 569, 590, 589
122, 128, 129, 150, 149, 569, 570, 591, 590
123, 129, 130, 151, 150, 570, 571, 592, 591
124, 130, 131, 152, 151, 571, 572, 593, 592
125, 131, 132, 153, 152, 572, 573, 594, 593
126, 132, 133, 154, 153, 573, 574, 595, 594
127, 133, 134, 155, 154, 574, 575, 596, 595
128, 134, 135, 156, 155, 575, 576, 597, 596
129, 135, 136, 157, 156, 576, 577, 598, 597
130, 136, 137, 158, 157, 577, 578, 599, 598
131, 137, 138, 159, 158, 578, 579, 600, 599
132, 138, 139, 160, 159, 579, 580, 601, 600
133, 139, 140, 161, 160, 580, 581, 602, 601
134, 140, 141, 162, 161, 581, 582, 603, 602
135, 141, 142, 163, 162, 582, 583, 604, 603
136, 142, 143, 164, 163, 583, 584, 605, 604
137, 143, 144, 165, 164, 584, 585, 606, 605
138, 144, 145, 166, 165, 585, 586, 607, 606
139, 145, 146, 167, 166, 586, 587, 608, 607
140, 146, 147, 168, 167, 587, 588, 609, 608
141, 148, 149, 170, 169, 589, 590, 611, 610
142, 149, 150, 171, 170, 590, 591, 612, 611
143, 150, 151, 172, 171, 591, 592, 613, 612
144, 151, 152, 173, 172, 592, 593, 614, 613
145, 152, 153, 174, 173, 593, 594, 615, 614
146, 153, 154, 175, 174, 594, 595, 616, 615
147, 154, 155, 176, 175, 595, 596, 617, 616
148, 155, 156, 177, 176, 596, 597, 618, 617
149, 156, 157, 178, 177, 597, 598, 619, 618
150, 157, 158, 179, 178, 598, 599, 620, 619
151, 158, 159, 180, 179, 599, 600, 621, 620
152, 159, 160, 181, 180, 600, 601, 622, 621
153, 160, 161, 182, 181, 601, 602, 623, 622
154, 161, 162, 183, 182, 602, 603, 624, 623
155, 162, 163, 184, 183, 603, 604, 625, 624
156, 163, 164, 185, 184, 604, 605, 626, 625
157, 164, 165, 186, 185, 605, 606, 627, 626
158, 165, 166, 187, 186, 606, 607, 628, 627
159, 166, 167, 188, 187, 607, 608, 629, 628
160, 167, 168, 189, 188, 608, 609, 630, 629
161, 169, 170, 191, 190, 610, 611, 632, 631
162, 170, 171, 192, 191, 611, 612, 633, 632
163, 171, 172, 193, 192, 612, 613, 634, 633
164, 172, 173, 194, 193, 613, 614, 635, 634
165, 173, 174, 195, 194, 614, 615, 636, 635
166, 174, 175, 196, 195, 615, 616, 637, 636
167, 175, 176, 197, 196, 616, 617, 638, 637
168, 176, 177, 198, 197, 617, 618, 639, 638
169, 177, 178, 199, 198, 618, 619, 640, 639
170, 178, 179, 200, 199, 619, 620, 641, 640
171, 179, 180, 201, 200, 620, 621, 642, 641
172, 180, 181, 202, 201, 621, 622, 643, 642
173, 181, 182, 203, 202, 622, 623, 644, 643
174, 182, 183, 204, 203, 623, 624, 645, 644
175, 183, 184, 205, 204, 624, 625, 646, 645
176, 184, 185, 206, 205, 625, 626, 647, 646
177, 185, 186, 207, 206, 626, 627, 648, 647
178, 186, 187, 208, 207, 627, 628, 649, 648
179, 187, 188, 209, 208, 628, 629, 650, 649
180, 188, 189, 210, 209, 629, 630, 651, 650
181, 190, 191, 212, 211, 631, 632, 653, 652
182, 191, 192, 213, 212, 632, 633, 654, 653
183, 192, 193, 214, 213, 633, 634, 655, 654
184, 193, 194, 215, 214, 634, 635, 656, 655
185, 194, 195, 216, 215, 635, 636, 657, 656
186, 195, 196, 217, 216, 636, 637, 658, 657
187, 196, 197, 218, 217, 637, 638, 659, 658
188, 197, 198, 219, 218, 638, 639, 660, 659
189, 198, 199, 220, 219, 639, 640, 661, 660
190, 199, 200, 221, 220, 640, 641, 662, 661
191, 200, 201, 222, 221, 641, 642, 663, 662
192, 201, 202, 223, 222, 642, 643, 664, 663
193, 202, 203, 224, 223, 643, 644, 665, 664
194, 203, 204, 225, 224, 644, 645, 666, 665
195, 204, 205, 226, 225, 645, 646, 667, 666
196, 205, 206, 227, 226, 646, 647, 668, 667
197, 206, 207, 228, 227, 647, 648, 669, 668
198, 207, 208, 229, 228, 648, 649, 670, 669
199, 208, 209, 230, 229, 649, 650, 671, 670
200, 209, 210, 231, 230, 650, 651, 672, 671
201, 211, 212, 233, 232, 652, 653, 674, 673
202, 212, 213, 234, 233, 653, 654, 675, 674
203, 213, 214, 235, 234, 654, 655, 676, 675
204, 214, 215, 236, 235, 655, 656, 677, 676
205, 215, 216, 237, 236, 656, 657, 678, 677
206, 216, 217, 238, 237, 657, 658, 679, 678
207, 217, 218, 239, 238, 658, 659, 680, 679
208, 218, 219, 240, 239, 659, 660, 681, 680
209, 219, 220, 241, 240, 660, 661, 682, 681
210, 220, 221, 242, 241, 661, 662, 683, 682
211, 221, 222, 243, 242, 662, 663, 684, 683
212, 222, 223, 244, 243, 663, 664, 685, 684
213, 223, 224, 245, 244, 664, 665, 686, 685
214, 224, 225, 246, 245, 665, 666, 687, 686
215, 225, 226, 247, 246, 666, 667, 688, 687
216, 226, 227, 248, 247, 667, 668, 689, 688
217, 227, 228, 249, 248, 668, 669, 690, 689
218, 228, 229, 250, 249, 669, 670, 691, 690
219, 229, 230, 251, 250, 670, 671, 692, 691
220, 230, 231, 252, 251, 671, 672, 693, 692
221, 232, 233, 254, 253, 673, 674, 695, 694
222, 233, 234, 255, 254, 674, 675, 696, 695
223, 234, 235, 256, 255, 675, 676, 697, 696
224, 235, 236, 257, 256, 676, 677, 698, 697
225, 236, 237, 258, 257, 677, 678, 699, 698
226, 237, 238, 259, 258, 678, 679, 700, 699
227, 238, 239, 260, 259, 679, 680, 701, 700
228, 239, 240, 261, 260, 680, 681, 702, 701
229, 240, 241, 262, 261, 681, 682, 703, 702
230, 241, 242, 263, 262, 682, 683, 704, 703
231, 242, 243, 264, 263, 683, 684, 705, 704
232, 243, 244, 265, 264, 684, 685, 706, 705
233, 244, 245, 266, 265, 685, 686, 707, 706
234, 245, 246, 267, 266, 686, 687, 708, 707
235, 246, 247, 268, 267, 687, 688, 709, 708
236, 247, 248, 269, 268, 688, 689, 710, 709
237, 248, 249, 270, 269, 689, 690, 711, 710
238, 249, 250, 271, 270, 690, 691, 712, 711
239, 250, 251, 272, 271, 691, 692, 713, 712
240, 251, 252, 273, 272, 692, 693, 714, 713
241, 253, 254, 275, 274, 694, 695, 716, 715
242, 254, 255, 276, 275, 695, 696, 717, 716
243, 255, 256, 277, 276, 696, 697, 718, 717
244, 256, 257, 278, 277, 697, 698, 719, 718
245, 257, 258, 279, 278, 698, 699, 720, 719
246, 258, 259, 280, 279, 699, 700, 721, 720
247, 259, 260, 281, 280, 700, 701, 722, 721
248, 260, 261, 282, 281, 701, 702, 723, 722
249, 261, 262, 283, 282, 702, 703, 724, 723
250, 262, 263, 284, 283, 703, 704, 725, 724
251, 263, 264, 285, 284, 704, 705, 726, 725
252, 264, 265, 286, 285, 705, 706, 727, 726
253, 265, 266, 287, 286, 706, 707, 728, 727
254, 266, 267, 288, 287, 707, 708, 729, 728
255, 267, 268, 289, 288, 708, 709, 730, 729
256, 268, 269, 290, 289, 709, 710, 731, 730
257, 269, 270, 291, 290, 710, 711, 732, 731
258, 270, 271, 292, 291, 711, 712, 733, 732
259, 271, 272, 293, 292, 712, 713, 734, 733
260, 272, 273, 294, 293, 713, 714, 735, 734
261, 274, 275, 296, 295, 715, 716, 737, 736
262, 275, 276, 297, 296, 716, 717, 738, 737
263, 276, 277, 298, 297, 717, 718, 739, 738
264, 277, 278, 299, 298, 718, 719, 740, 739
265, 278, 279, 300, 299, 719, 720, 741, 740
266, 279, 280, 301, 300, 720, 721, 742, 741
267, 280, 281, 302, 301, 721, 722, 743, 742
268, 281, 282, 303, 302, 722, 723, 744, 743
269, 282, 283, 304, 303, 723, 724, 745, 744
270, 283, 284, 305, 304, 724, 725, 746, 745
271, 284, 285, 306, 305, 725, 726, 747, 746
272, 285, 286, 307, 306, 726, 727, 748, 747
273, 286, 287, 308, 307, 727, 728, 749, 748
274, 287, 288, 309, 308, 728, 729, 750, 749
275, 288, 289, 310, 309, 729, 730, 751, 750
276, 289, 290, 311, 310, 730, 731, 752, 751
277, 290, 291, 312, 311, 731, 732, 753, 752
278, 291, 292, 313, 312, 732, 733, 754, 753
279, 292, 293, 314, 313, 733, 734, 755, 754
280, 293, 294, 315, 314, 734, 735, 756, 755
281, 295, 296, 317, 316, 736, 737, 758, 757
282, 296, 297, 318, 317, 737, 738, 759, 758
283, 297, 298, 319, 318, 738, 739, 760, 759
284, 298, 299, 320, 319, 739, 740, 761, 760
285, 299, 300, 321, 320, 740, 741, 762, 761
286, 300, 301, 322, 321, 741, 742, 763, 762
287, 301, 302, 323, 322, 742, 743, 764, 763
288, 302, 303, 324, 323, 743, 744, 765, 764
289, 303, 304, 325, 324, 744, 745, 766, 765
290, 304, 305, 326, 325, 745, 746, 767, 766
291, 305, 306, 327, 326, 746, 747, 768, 767
292, 306, 307, 328, 327, 747, 748, 769, 768
293, 307, 308, 329, 328, 748, 749, 770, 769
294, 308, 309, 330, 329, 749, 750, 771, 770
295, 309, 310, 331, 330, 750, 751, 772, 771
296, 310, 311, 332, 331, 751, 752, 773, 772
297, 311, 312, 333, 332, 752, 753, 774, 773
298, 312, 313, 334, 333, 753, 754, 775, 774
299, 313, 314, 335, 334, 754, 755, 776, 775
300, 314, 315, 336, 335, 755, 756, 777, 776
301, 316, 317, 338, 337, 757, 758, 779, 778
302, 317, 318, 339, 338, 758, 759, 780, 779
303, 318, 319, 340, 339, 759, 760, 781, 780
304, 319, 320, 341, 340, 760, 761, 782, 781
305, 320, 321, 342, 341, 761, 762, 783, 782
306, 321, 322, 343, 342, 762, 763, 784, 783
307, 322, 323, 344, 343, 763, 764, 785, 784
308, 323, 324, 345, 344, 764, 765, 786, 785
309, 324, 325, 346, 345, 765, 766, 787, 786
310, 325, 326, 347, 346, 766, 767, 788, 787
311, 326, 327, 348, 347, 767, 768, 789, 788
312, 327, 328, 349, 348, 768, 769, 790, 789
313, 328, 329, 350, 349, 769, 770, 791, 790
314, 329, 330, 351, 350, 770, 771, 792, 791
315, 330, 331, 352, 351, 771, 772, 793, 792
316, 331, 332, 353, 352, 772, 773, 794, 793
317, 332, 333, 354, 353, 773, 774, 795, 794
318, 333, 334, 355, 354, 774, 775, 796, 795
319, 334, 335, 356, 355, 775, 776, 797, 796
320, 335, 336, 357, 356, 776, 777, 798, 797
321, 337, 338, 359, 358, 778, 779, 800, 799
322, 338, 339, 360, 359, 779, 780, 801, 800
323, 339, 340, 361, 360, 780, 781, 802, 801
324, 340, 341, 362, 361, 781, 782, 803, 802
325, 341, 342, 363, 362, 782, 783, 804, 803
326, 342, 343, 364, 363, 783, 784, 805, 804
327, 343, 344, 365, 364, 784, 785, 806, 805
328, 344, 345, 366, 365, 785, 786, 807, 806
329, 345, 346, 367, 366, 786, 787, 808, 807
330, 346, 347, 368, 367, 787, 788, 809, 808
331, 347, 348, 369, 368, 788, 789, 810, 809
332, 348, 349, 370, 369, 789, 790, 811, 810
333, 349, 350, 371, 370, 790, 791, 812, 811
334, 350, 351, 372, 371, 791, 792, 813, 812
335, 351, 352, 373, 372, 792, 793, 814, 813
336, 352, 353, 374, 373, 793, 794, 815, 814
337, 353, 354, 375, 374, 794, 795, 816, 815
338, 354, 355, 376, 375, 795, 796, 817, 816
339, 355, 356, 377, 376, 796, 797, 818, 817
340, 356, 357, 378, 377, 797, 798, 819, 818
341, 358, 359, 380, 379, 799, 800, 821, 820
342, 359, 360, 381, 380, 800, 801, 822, 821
343, 360, 361, 382, 381, 801, 802, 823, 822
344, 361, 362, 383, 382, 802, 803, 824, 823
345, 362, 363, 384, 383, 803, 804, 825, 824
346, 363, 364, 385, 384, 804, 805, 826, 825
347, 364, 365, 386, 385, 805, 806, 827, 826
348, 365, 366, 387, 386, 806, 807, 828, 827
349, 366, 367, 388, 387, 807, 808, 829, 828
350, 367, 368, 389, 388, 808, 809, 830, 829
351, 368, 369, 390, 389, 809, 810, 831, 830
352, 369, 370, 391, 390, 810, 811, 832, 831
353, 370, 371, 392, 391, 811, 812, 833, 832
354, 371, 372, 393, 392, 812, 813, 834, 833
355, 372, 373, 394, 393, 813, 814, 835, 834
356, 373, 374, 395, 394, 814, 815, 836, 835
357, 374, 375, 396, 395, 815, 816, 837, 836
358, 375, 376, 397, 396, 816, 817, 838, 837
359, 376, 377, 398, 397, 817, 818, 839, 838
360, 377, 378, 399, 398, 818, 819, 840, 839
361, 379, 380, 401, 400, 820, 821, 842, 841
362, 380, 381, 402, 401, 821, 822, 843, 842
363, 381, 382, 403, 402, 822, 823, 844, 843
364, 382, 383, 404, 403, 823, 824, 845, 844
365, 383, 384, 405, 404, 824, 825, 846, 845
366, 384, 385, 406, 405, 825, 826, 847, 846
367, 385, 386, 407, 406, 826, 827, 848, 847
368, 386, 387, 408, 407, 827, 828, 849, 848
369, 387, 388, 409, 408, 828, 829, 850, 849
370, 388, 389, 410, 409, 829, 830, 851, 850
371, 389, 390, 411, 410, 830, 831, 852, 851
372, 390, 391, 412, 411, 831, 832, 853, 852
373, 391, 392, 413, 412, 832, 833, 854, 853
374, 392, 393, 414, 413, 833, 834, 855, 854
375, 393, 394, 415, 414, 834, 835, 856, 855
376, 394, 395, 416, 415, 835, 836, 857, 856
377, 395, 396, 417, 416, 836, 837, 858, 857
378, 396, 397, 418, 417, 837, 838, 859, 858
379, 397, 398, 419, 418, 838, 839, 860, 859
380, 398, 399, 420, 419, 839, 840, 861, 860
381, 400, 401, 422, 421, 841, 842, 863, 862
382, 401, 402, 423, 422, 842, 843, 864, 863
383, 402, 403, 424, 423, 843, 844, 865, 864
384, 403, 404, 425, 424, 844, 845, 866, 865
385, 404, 405, 426, 425, 845, 846, 867, 866
386, 405, 406, 427, 426, 846, 847, 868, 867
387, 406, 407, 428, 427, 847, 848, 869, 868
388, 407, 408, 429, 428, 848, 849, 870, 869
389, 408, 409, 430, 429, 849, 850, 871, 870
390, 409, 410, 431, 430, 850, 851, 872, 871
391, 410, 411, 432, 431, 851, 852, 873, 872
392, 411, 412, 433, 432, 852, 853, 874, 873
393, 412, 413, 434, 433, 853, 854, 875, 874
394, 413, 414, 435, 434, 854, 855, 876, 875
395, 414, 415, 436, 435, 855, 856, 877, 876
396, 415, 416, 437, 436, 856, 857, 878, 877
397, 416, 417, 438, 437, 857, 858, 879, 878
398, 417, 418, 439, 438, 858, 859, 880, 879
399, 418, 419, 440, 439, 859, 860, 881, 880
400, 419, 420, 441, 440, 860, 861, 882, 881
401, 442, 443, 464, 463, 883, 884, 905, 904
402, 443, 444, 465, 464, 884, 885, 906, 905
403, 444, 445, 466, 465, 885, 886, 907, 906
404, 445, 446, 467, 466, 886, 887, 908, 907
405, 446, 447, 468, 467, 887, 888, 909, 908
406, 447, 448, 469, 468, 888, 889, 910, 909
407, 448, 449, 470, 469, 889, 890, 911, 910
408, 449, 450, 471, 470, 890, 891, 912, 911
409, 450, 451, 472, 471, 891, 892, 913, 912
410, 451, 452, 473, 472, 892, 893, 914, 913
411, 452, 453, 474, 473, 893, 894, 915, 914
412, 453, 454, 475, 474, 894, 895, 916, 915
413, 454, 455, 476, 475, 895, 896, 917, 916
414, 455, 456, 477, 476, 896, 897, 918, 917
415, 456, 457, 478, 477, 897, 898, 919, 918
416, 457, 458, 479, 478, 898, 899, 920, 919
417, 458, 459, 480, 479, 899, 900, 921, 920
418, 459, 460, 481, 480, 900, 901, 922, 921
419, 460, 461, 482, 481, 901, 902, 923, 922
420, 461, 462, 483, 482, 902, 903, 924, 923
421, 463, 464, 485, 484, 904, 905, 926, 925
422, 464, 465, 486, 485, 905, 906, 927, 926
423, 465, 466, 487, 486, 906, 907, 928, 927
424, 466, 467, 488, 487, 907, 908, 929, 928
425, 467, 468, 489, 488, 908, 909, 930, 929
426, 468, 469, 490, 489, 909, 910, 931, 930
427, 469, 470, 491, 490, 910, 911, 932, 931
428, 470, 471, 492, 491, 911, 912, 933, 932
429, 471, 472, 493, 492, 912, 913, 934, 933
430, 472, 473, 494, 493, 913, 914, 935, 934
431, 473, 474, 495, 494, 914, 915, 936, 935
432, 474, 475, 496, 495, 915, 916, 937, 936
433, 475, 476, 497, 496, 916, 917, 938, 937
434, 476, 477, 498, 497, 917, 918, 939, 938
435, 477, 478, 499, 498, 918, 919, 940, 939
436, 478, 479, 500, 499, 919, 920, 941, 940
437, 479, 480, 501, 500, 920, 921, 942, 941
438, 480, 481, 502, 501, 921, 922, 943, 942
439, 481, 482, 503, 502, 922, 923, 944, 943
440, 482, 483, 504, 503, 923, 924, 945, 944
441, 484, 485, 506, 505, 925, 926, 947, 946
442, 485, 486, 507, 506, 926, 927, 948, 947
443, 486, 487, 508, 507, 927, 928, 949, 948
444, 487, 488, 509, 508, 928, 929, 950, 949
445, 488, 489, 510, 509, 929, 930, 951, 950
446, 489, 490, 511, 510, 930, 931, 952, 951
447, 490, 491, 512, 511, 931, 932, 953, 952
448, 491, 492, 513, 512, 932, 933, 954, 953
449, 492, 493, 514, 513, 933, 934, 955, 954
450, 493, 494, 515, 514, 934, 935, 956, 955
451, 494, 495, 516, 515, 935, 936, 957, 956
452, 495, 496, 517, 516, 936, 937, 958, 957
453, 496, 497, 518, 517, 937, 938, 959, 958
454, 497, 498, 519, 518, 938, 939, 960, 959
455, 498, 499, 520, 519, 939, 940, 961, 960
456, 499, 500, 521, 520, 940, 941, 962, 961
457, 500, 501, 522, 521, 941, 942, 963, 962
458, 501, 502, 523, 522, 942, 943, 964, 963
459, 502, 503, 524, 523, 943, 944, 965, 964
460, 503, 504, 525, 524, 944, 945, 966, 965
461, 505, 506, 527, 526, 946, 947, 968, 967
462, 506, 507, 528, 527, 947, 948, 969, 968
463, 507, 508, 529, 528, 948, 949, 970, 969
464, 508, 509, 530, 529, 949, 950, 971, 970
465, 509, 510, 531, 530, 950, 951, 972, 971
466, 510, 511, 532, 531, 951, 952, 973, 972
467, 511, 512, 533, 532, 952, 953, 974, 973
468, 512, 513, 534, 533, 953, 954, 975, 974
469, 513, 514, 535, 534, 954, 955, 976, 975
470, 514, 515, 536, 535, 955, 956, 977, 976
471, 515, 516, 537, 536, 956, 957, 978, 977
472, 516, 517, 538, 537, 957, 958, 979, 978
473, 517, 518, 539, 538, 958, 959, 980, 979
474, 518, 519, 540, 539, 959, 960, 981, 980
475, 519, 520, 541, 540, 960, 961, 982, 981
476, 520, 521, 542, 541, 961, 962, 983, 982
477, 521, 522, 543, 542, 962, 963, 984, 983
478, 522, 523, 544, 543, 963, 964, 985, 984
479, 523, 524, 545, 544, 964, 965, 986, 985
480, 524, 525, 546, 545, 965, 966, 987, 986
481, 526, 527, 548, 547, 967, 968, 989, 988
482, 527, 528, 549, 548, 968, 969, 990, 989
483, 528, 529, 550, 549, 969, 970, 991, 990
484, 529, 530, 551, 550, 970, 971, 992, 991
485, 530, 531, 552, 551, 971, 972, 993, 992
486, 531, 532, 553, 552, 972, 973, 994, 993
487, 532, 533, 554, 553, 973, 974, 995, 994
488, 533, 534, 555, 554, 974, 975, 996, 995
489, 534, 535, 556, 555, 975, 976, 997, 996
490, 535, 536, 557, 556, 976, 977, 998, 997
491, 536, 537, 558, 557, 977, 978, 999, 998
492, 537, 538, 559, 558, 978, 979, 1000, 999
493, 538, 539, 560, 559, 979, 980, 1001, 1000
494, 539, 540, 561, 560, 980, 981, 1002, 1001
495, 540, 541, 562, 561, 981, 982, 1003, 1002
496, 541, 542, 563, 562, 982, 983, 1004, 1003
497, 542, 543, 564, 563, 983, 984, 1005, 1004
498, 543, 544, 565, 564, 984, 985, 1006, 1005
499, 544, 545, 566, 565, 985, 986, 1007, 1006
500, 545, 546, 567, 566, 986, 987, 1008, 1007
501, 547, 548, 569, 568, 988, 989, 1010, 1009
502, 548, 549, 570, 569, 989, 990, 1011, 1010
503, 549, 550, 571, 570, 990, 991, 1012, 1011
504, 550, 551, 572, 571, 991, 992, 1013, 1012
505, 551, 552, 573, 572, 992, 993, 1014, 1013
506, 552, 553, 574, 573, 993, 994, 1015, 1014
507, 553, 554, 575, 574, 994, 995, 1016, 1015
508, 554, 555, 576, 575, 995, 996, 1017, 1016
509, 555, 556, 577, 576, 996, 997, 1018, 1017
510, 556, 557, 578, 577, 997, 998, 1019, 1018
511, 557, 558, 579, 578, 998, 999, 1020, 1019
512, 558, 559, 580, 579, 999, 1000, 1021, 1020
513, 559, 560, 581, 580, 1000, 1001, 1022, 1021
514, 560, 561, 582, 581, 1001, 1002, 1023, 1022
515, 561, 562, 583, 582, 1002, 1003, 1024, 1023
516, 562, 563, 584, 583, 1003, 1004, 1025, 1024
517, 563, 564, 585, 584, 1004, 1005, 1026, 1025
518, 564, 565, 586, 585, 1005, 1006, 1027, 1026
519, 565, 566, 587, 586, 1006, 1007, 1028, 1027
520, 566, 567, 588, 587, 1007, 1008, 1029, 1028
521, 568, 569, 590, 589, 1009, 1010, 1031, 1030
522, 569, 570, 591, 590, 1010, 1011, 1032, 1031
523, 570, 571, 592, 591, 1011, 1012, 1033, 1032
524, 571, 572, 593, 592, 1012, 1013, 1034, 1033
525, 572, 573, 594, 593, 1013, 1014, 1035, 1034
526, 573, 574, 595, 594, 1014, 1015, 1036, 1035
527, 574, 575, 596, 595, 1015, 1016, 1037, 1036
528, 575, 576, 597, 596, 1016, 1017, 1038, 1037
529, 576, 577, 598, 597, 1017, 1018, 1039, 1038
530, 577, 578, 599, 598, 1018, 1019, 1040, 1039
531, 578, 579, 600, 599, 1019, 1020, 1041, 1040
532, 579, 580, 601, 600, 1020, 1021, 1042, 1041
533, 580, 581, 602, 601, 1021, 1022, 1043, 1042
534, 581, 582, 603, 602, 1022, 1023, 1044, 1043
535, 582, 583, 604, 603, 1023, 1024, 1045, 1044
536, 583, 584, 605, 604, 1024, 1025, 1046, 1045
537, 584, 585, 606, 605, 1025, 1026, 1047, 1046
538, 585, 586, 607, 606, 1026, 1027, 1048, 1047
539, 586, 587, 608, 607, 1027, 1028, 1049, 1048
540, 587, 588, 609, 608, 1028, 1029, 1050, 1049
541, 589, 590, 611, 610, 1030, 1031, 1052, 1051
542, 590, 591, 612, 611, 1031, 1032, 1053, 1052
543, 591, 592, 613, 612, 1032, 1033, 1054, 1053
544, 592, 593, 614, 613, 1033, 1034, 1055, 1054
545, 593, 594, 615, 614, 1034, 1035, 1056, 1055
546, 594, 595, 616, 615, 1035, 1036, 1057, 1056
547, 595, 596, 617, 616, 1036, 1037, 1058, 1057
548, 596, 597, 618, 617, 1037, 1038, 1059, 1058
549, 597, 598, 619, 618, 1038, 1039, 1060, 1059
550, 598, 599, 620, 619, 1039, 1040, 1061, 1060
551, 599, 600, 621, 620, 1040, 1041, 1062, 1061
552, 600, 601, 622, 621, 1041, 1042, 1063, 1062
553, 601, 602, 623, 622, 1042, 1043, 1064, 1063
554, 602, 603, 624, 623, 1043, 1044, 1065, 1064
555, 603, 604, 625, 624, 1044, 1045, 1066, 1065
556, 604, 605, 626, 625, 1045, 1046, 1067, 1066
557, 605, 606, 627, 626, 1046, 1047, 1068, 1067
558, 606, 607, 628, 627, 1047, 1048, 1069, 1068
559, 607, 608, 629, 628, 1048, 1049, 1070, 1069
560, 608, 609, 630, 629, 1049, 1050, 1071, 1070
561, 610, 611, 632, 631, 1051, 1052, 1073, 1072
562, 611, 612, 633, 632, 1052, 1053, 1074, 1073
563, 612, 613, 634, 633, 1053, 1054, 1075, 1074
564, 613, 614, 635, 634, 1054, 1055, 1076, 1075
565, 614, 615, 636, 635, 1055, 1056, 1077, 1076
566, 615, 616, 637, 636, 1056, 1057, 1078, 1077
567, 616, 617, 638, 637, 1057, 1058, 1079, 1078
568, 617, 618, 639, 638, 1058, 1059, 1080, 1079
569, 618, 619, 640, 639, 1059, 1060, 1081, 1080
570, 619, 620, 641, 640, 1060, 1061, 1082, 1081
571, 620, 621, 642, 641, 1061, 1062, 1083, 1082
572, 621, 622, 643, 642, 1062, 1063, 1084, 1083
573, 622, 623, 644, 643, 1063, 1064, 1085, 1084
574, 623, 624, 645, 644, 1064, 1065, 1086, 1085
575, 624, 625, 646, 645, 1065, 1066, 1087, 1086
576, 625, 626, 647, 646, 1066, 1067, 1088, 1087
577, 626, 627, 648, 647, 1067, 1068, 1089, 1088
578, 627, 628, 649, 648, 1068, 1069, 1090, 1089
579, 628, 629, 650, 649, 1069, 1070, 1091, 1090
580, 629, 630, 651, 650, 1070, 1071, 1092, 1091
581, 631, 632, 653, 652, 1072, 1073, 1094, 1093
582, 632, 633, 654, 653, 1073, 1074, 1095, 1094
583, 633, 634, 655, 654, 1074, 1075, 1096, 1095
584, 634, 635, 656, 655, 1075, 1076, 1097, 1096
585, 635, 636, 657, 656, 1076, 1077, 1098, 1097
586, 636, 637, 658, 657, 1077, 1078, 1099, 1098
587, 637, 638, 659, 658, 1078, 1079, 1100, 1099
588, 638, 639, 660, 659, 1079, 1080, 1101, 1100
589, 639, 640, 661, 660, 1080, 1081, 1102, 1101
590, 640, 641, 662, 661, 1081, 1082, 1103, 1102
591, 641, 642, 663, 662, 1082, 1083, 1104, 1103
592, 642, 643, 664, 663, 1083, 1084, 1105, 1104
593, 643, 644, 665, 664, 1084, 1085, 1106, 1105
594, 644, 645, 666, 665, 1085, 1086, 1107, 1106
595, 645, 646, 667, 666, 1086, 1087, 1108, 1107
596, 646, 647, 668, 667, 1087, 1088, 1109, 1108
597, 647, 648, 669, 668, 1088, 1089, 1110, 1109
598, 648, 649, 670, 669, 1089, 1090, 1111, 1110
599, 649, 650, 671, 670, 1090, 1091, 1112, 1111
600, 650, 651, 672, 671, 1091, 1092, 1113, 1112
601, 652, 653, 674, 673, 1093, 1094, 1115, 1114
602, 653, 654, 675, 674, 1094, 1095, 1116, 1115
603, 654, 655, 676, 675, 1095, 1096, 1117, 1116
604, 655, 656, 677, 676, 1096, 1097, 1118, 1117
605, 656, 657, 678, 677, 1097, 1098, 1119, 1118
606, 657, 658, 679, 678, 1098, 1099, 1120, 1119
607, 658, 659, 680, 679, 1099, 1100, 1121, 1120
608, 659, 660, 681, 680, 1100, 1101, 1122, 1121
609, 660, 661, 682, 681, 1101, 1102, 1123, 1122
610, 661, 662, 683, 682, 1102, 1103, 1124, 1123
611, 662, 663, 684, 683, 1103, 1104, 1125, 1124
612, 663, 664, 685, 684, 1104, 1105, 1126, 1125
613, 664, 665, 686, 685, 1105, 1106, 1127, 1126
614, 665, 666, 687, 686, 1106, 1107, 1128, 1127
615, 666, 667, 688, 687, 1107, 1108, 1129, 1128
616, 667, 668, 689, 688, 1108, 1109, 1130, 1129
617, 668, 669, 690, 689, 1109, 1110, 1131, 1130
618, 669, 670, 691, 690, 1110, 1111, 1132, 1131
619, 670, 671, 692, 691, 1111, 1112, 1133, 1132
620, 671, 672, 693, 692, 1112, 1113, 1134, 1133
621, 673, 674, 695, 694, 1114, 1115, 1136, 1135
622, 674, 675, 696, 695, 1115, 1116, 1137, 1136
623, 675, 676, 697, 696, 1116, 1117, 1138, 1137
624, 676, 677, 698, 697, 1117, 1118, 1139, 1138
625, 677, 678, 699, 698, 1118, 1119, 1140, 1139
626, 678, 679, 700, 699, 1119, 1120, 1141, 1140
627, 679, 680, 701, 700, 1120, 1121, 1142, 1141
628, 680, 681, 702, 701, 1121, 1122, 1143, 1142
629, 681, 682, 703, 702, 1122, 1123, 1144, 1143
630, 682, 683, 704, 703, 1123, 1124, 1145, 1144
631, 683, 684, 705, 704, 1124, 1125, 1146, 1145
632, 684, 685, 706, 705, 1125, 1126, 1147, 1146
633, 685, 686, 707, 706, 1126, 1127, 1148, 1147
634, 686, 687, 708, 707, 1127, 1128, 1149, 1148
635, 687, 688, 709, 708, 1128, 1129, 1150, 1149
636, 688, 689, 710, 709, 1129, 1130, 1151, 1150
637, 689, 690, 711, 710, 1130, 1131, 1152, 1151
638, 690, 691, 712, 711, 1131, 1132, 1153, 1152
639, 691, 692, 713, 712, 1132, 1133, 1154, 1153
640, 692, 693, 714, 713, 1133, 1134, 1155, 1154
641, 694, 695, 716, 715, 1135, 1136, 1157, 1156
642, 695, 696, 717, 716, 1136, 1137, 1158, 1157
643, 696, 697, 718, 717, 1137, 1138, 1159, 1158
644, 697, 698, 719, 718, 1138, 1139, 1160, 1159
645, 698, 699, 720, 719, 1139, 1140, 1161, 1160
646, 699, 700, 721, 720, 1140, 1141, 1162, 1161
647, 700, 701, 722, 721, 1141, 1142, 1163, 1162
648, 701, 702, 723, 722, 1142, 1143, 1164, 1163
649, 702, 703, 724, 723, 1143, 1144, 1165, 1164
650, 703, 704, 725, 724, 1144, 1145, 1166, 1165
651, 704, 705, 726, 725, 1145, 1146, 1167, 1166
652, 705, 706, 727, 726, 1146, 1147, 1168, 1167
653, 706, 707, 728, 727, 1147, 1148, 1169, 1168
654, 707, 708, 729, 728, 1148, 1149, 1170, 1169
655, 708, 709, 730, 729, 1149, 1150, 1171, 1170
656, 709, 710, 731, 730, 1150, 1151, 1172, 1171
657, 710, 711, 732, 731, 1151, 1152, 1173, 1172
658, 711, 712, 733, 732, 1152, 1153, 1174, 1173
659, 712, 713, 734, 733, 1153, 1154, 1175, 1174
660, 713, 714, 735, 734, 1154, 1155, 1176, 1175
661, 715, 716, 737, 736, 1156, 1157, 1178, 1177
662, 716, 717, 738, 737, 1157, 1158, 1179, 1178
663, 717, 718, 739, 738, 1158, 1159, 1180, 1179
664, 718, 719, 740, 739, 1159, 1160, 1181, 1180
665, 719, 720, 741, 740, 1160, 1161, 1182, 1181
666, 720, 721, 742, 741, 1161, 1162, 1183, 1182
667, 721, 722, 743, 742, 1162, 1163, 1184, 1183
668, 722, 723, 744, 743, 1163, 1164, 1185, 1184
669, 723, 724, 745, 744, 1164, 1165, 1186, 1185
670, 724, 725, 746, 745, 1165, 1166, 1187, 1186
671, 725, 726, 747, 746, 1166, 1167, 1188, 1187
672, 726, 727, 748, 747, 1167, 1168, 1189, 1188
673, 727, 728, 749, 748, 1168, 1169, 1190, 1189
674, 728, 729, 750, 749, 1169, 1170, 1191, 1190
675, 729, 730, 751, 750, 1170, 1171, 1192, 1191
676, 730, 731, 752, 751, 1171, 1172, 1193, 1192
677, 731, 732, 753, 752, 1172, 1173, 1194, 1193
678, 732, 733, 754, 753, 1173, 1174, 1195, 1194
679, 733, 734, 755, 754, 1174, 1175, 1196, 1195
680, 734, 735, 756, 755, 1175, 1176, 1197, 1196
681, 736, 737, 758, 757, 1177, 1178, 1199, 1198
682, 737, 738, 759, 758, 1178, 1179, 1200, 1199
683, 738, 739, 760, 759, 1179, 1180, 1201, 1200
684, 739, 740, 761, 760, 1180, 1181, 1202, 1201
685, 740, 741, 762, 761, 1181, 1182, 1203, 1202
686, 741, 742, 763, 762, 1182, 1183, 1204, 1203
687, 742, 743, 764, 763, 1183, 1184, 1205, 1204
688, 743, 744, 765, 764, 1184, 1185, 1206, 1205
689, 744, 745, 766, 765, 1185, 1186, 1207, 1206
690, 745, 746, 767, 766, 1186, 1187, 1208, 1207
691, 746, 747, 768, 767, 1187, 1188, 1209, 1208
692, 747, 748, 769, 768, 1188, 1189, 1210, 1209
693, 748, 749, 770, 769, 1189, 1190, 1211, 1210
694, 749, 750, 771, 770, 1190, 1191, 1212, 1211
695, 750, 751, 772, 771, 1191, 1192, 1213, 1212
696, 751, 752, 773, 772, 1192, 1193, 1214, 1213
697, 752, 753, 774, 773, 1193, 1194, 1215, 1214
698, 753, 754, 775, 774, 1194, 1195, 1216, 1215
699, 754, 755, 776, 775, 1195, 1196, 1217, 1216
700, 755, 756, 777, 776, 1196, 1197, 1218, 1217
701, 757, 758, 779, 778, 1198, 1199, 1220, 1219
702, 758, 759, 780, 779, 1199, 1200, 1221, 1220
703, 759, 760, 781, 780, 1200, 1201, 1222, 1221
704, 760, 761, 782, 781, 1201, 1202, 1223, 1222
705, 761, 762, 783, 782, 1202, 1203, 1224, 1223
706, 762, 763, 784, 783, 1203, 1204, 1225, 1224
707, 763, 764, 785, 784, 1204, 1205, 1226, 1225
708, 764, 765, 786, 785, 1205, 1206, 1227, 1226
709, 765, 766, 787, 786, 1206, 1207, 1228, 1227
710, 766, 767, 788, 787, 1207, 1208, 1229, 1228
711, 767, 768, 789, 788, 1208, 1209, 1230, 1229
712, 768, 769, 790, 789, 1209, 1210, 1231, 1230
713, 769, 770, 791, 790, 1210, 1211, 1232, 1231
714, 770, 771, 792, 791, 1211, 1212, 1233, 1232
715, 771, 772, 793, 792, 1212, 1213, 1234, 1233
716, 772, 773, 794, 793, 1213, 1214, 1235, 1234
717, 773, 774, 795, 794, 1214, 1215, 1236, 1235
718, 774, 775, 796, 795, 1215, 1216, 1237, 1236
719, 775, 776, 797, 796, 1216, 1217, 1238, 1237
720, 776, 777, 798, 797, 1217, 1218, 1239, 1238
721, 778, 779, 800, 799, 1219, 1220, 1241, 1240
722, 779, 780, 801, 800, 1220, 1221, 1242, 1241
723, 780, 781, 802, 801, 1221, 1222, 1243, 1242
724, 781, 782, 803, 802, 1222, 1223, 1244, 1243
725, 782, 783, 804, 803, 1223, 1224, 1245, 1244
726, 783, 784, 805, 804, 1224, 1225, 1246, 1245
727, 784, 785, 806, 805, 1225, 1226, 1247, 1246
728, 785, 786, 807, 806, 1226, 1227, 1248, 1247
729, 786, 787, 808, 807, 1227, 1228, 1249, 1248
730, 787, 788, 809, 808, 1228, 1229, 1250, 1249
731, 788, 789, 810, 809, 1229, 1230, 1251, 1250
732, 789, 790, 811, 810, 1230, 1231, 1252, 1251
733, 790, 791, 812, 811, 1231, 1232, 1253, 1252
734, 791, 792, 813, 812, 1232, 1233, 1254, 1253
735, 792, 793, 814, 813, 1233, 1234, 1255, 1254
736, 793, 794, 815, 814, 1234, 1235, 1256, 1255
737, 794, 795, 816, 815, 1235, 1236, 1257, 1256
738, 795, 796, 817, 816, 1236, 1237, 1258, 1257
739, 796, 797, 818, 817, 1237, 1238, 1259, 1258
740, 797, 798, 819, 818, 1238, 1239, 1260, 1259
741, 799, 800, 821, 820, 1240, 1241, 1262, 1261
742, 800, 801, 822, 821, 1241, 1242, 1263, 1262
743, 801, 802, 823, 822, 1242, 1243, 1264, 1263
744, 802, 803, 824, 823, 1243, 1244, 1265, 1264
745, 803, 804, 825, 824, 1244, 1245, 1266, 1265
746, 804, 805, 826, 825, 1245, 1246, 1267, 1266
747, 805, 806, 827, 826, 1246, 1247, 1268, 1267
748, 806, 807, 828, 827, 1247, 1248, 1269, 1268
749, 807, 808, 829, 828, 1248, 1249, 1270, 1269
750, 808, 809, 830, 829, 1249, 1250, 1271, 1270
751, 809, 810, 831, 830, 1250, 1251, 1272, 1271
752, 810, 811, 832, 831, 1251, 1252, 1273, 1272
753, 811, 812, 833, 832, 1252, 1253, 1274, 1273
754, 812, 813, 834, 833, 1253, 1254, 1275, 1274
755, 813, 814, 835, 834, 1254, 1255, 1276, 1275
756, 814, 815, 836, 835, 1255, 1256, 1277, 1276
757, 815, 816, 837, 836, 1256, 1257, 1278, 1277
758, 816, 817, 838, 837, 1257, 1258, 1279, 1278
759, 817, 818, 839, 838, 1258, 1259, 1280, 1279
760, 818, 819, 840, 839, 1259, 1260, 1281, 1280
761, 820, 821, 842, 841, 1261, 1262, 1283, 1282
762, 821, 822, 843, 842, 1262, 1263, 1284, 1283
763, 822, 823, 844, 843, 1263, 1264, 1285, 1284
764, 823, 824, 845, 844, 1264, 1265, 1286, 1285
765, 824, 825, 846, 845, 1265, 1266, 1287, 1286
766, 825, 826, 847, 846, 1266, 1267, 1288, 1287
767, 826, 827, 848, 847, 1267, 1268, 1289, 1288
768, 827, 828, 849, 848, 1268, 1269, 1290, 1289
769, 828, 829, 850, 849, 1269, 1270, 1291, 1290
770, 829, 830, 851, 850, 1270, 1271, 1292, 1291
771, 830, 831, 852, 851, 1271, 1272, 1293, 1292
772, 831, 832, 853, 852, 1272, 1273, 1294, 1293
773, 832, 833, 854, 853, 1273, 1274, 1295, 1294
774, 833, 834, 855, 854, 1274, 1275, 1296, 1295
775, 834, 835, 856, 855, 1275, 1276, 1297, 1296
776, 835, 836, 857, 856, 1276, 1277, 1298, 1297
777, 836, 837, 858, 857, 1277, 1278, 1299, 1298
778, 837, 838, 859, 858, 1278, 1279, 1300, 1299
779, 838, 839, 860, 859, 1279, 1280, 1301, 1300
780, 839, 840, 861, 860, 1280, 1281, 1302, 1301
781, 841, 842, 863, 862, 1282, 1283, 1304, 1303
782, 842, 843, 864, 863, 1283, 1284, 1305, 1304
783, 843, 844, 865, 864, 1284, 1285, 1306, 1305
784, 844, 845, 866, 865, 1285, 1286, 1307, 1306
785, 845, 846, 867, 866, 1286, 1287, 1308, 1307
786, 846, 847, 868, 867, 1287, 1288, 1309, 1308
787, 847, 848, 869, 868, 1288, 1289, 1310, 1309
788, 848, 849, 870, 869, 1289, 1290, 1311, 1310
789, 849, 850, 871, 870, 1290, 1291, 1312, 1311
790, 850, 851, 872, 871, 1291, 1292, 1313, 1312
791, 851, 852, 873, 872, 1292, 1293, 1314, 1313
792, 852, 853, 874, 873, 1293, 1294, 1315, 1314
793, 853, 854, 875, 874, 1294, 1295, 1316, 1315
794, 854, 855, 876, 875, 1295, 1296, 1317, 1316
795, 855, 856, 877, 876, 1296, 1297, 1318, 1317
796, 856, 857, 878, 877, 1297, 1298, 1319, 1318
797, 857, 858, 879, 878, 1298, 1299, 1320, 1319
798, 858, 859, 880, 879, 1299, 1300, 1321, 1320
799, 859, 860, 881, 880, 1300, 1301, 1322, 1321
800, 860, 861, 882, 881, 1301, 1302, 1323, 1322
801, 883, 884, 905, 904, 1324, 1325, 1346, 1345
802, 884, 885, 906, 905, 1325, 1326, 1347, 1346
803, 885, 886, 907, 906, 1326, 1327, 1348, 1347
804, 886, 887, 908, 907, 1327, 1328, 1349, 1348
805, 887, 888, 909, 908, 1328, 1329, 1350, 1349
806, 888, 889, 910, 909, 1329, 1330, 1351, 1350
807, 889, 890, 911, 910, 1330, 1331, 1352, 1351
808, 890, 891, 912, 911, 1331, 1332, 1353, 1352
809, 891, 892, 913, 912, 1332, 1333, 1354, 1353
810, 892, 893, 914, 913, 1333, 1334, 1355, 1354
811, 893, 894, 915, 914, 1334, 1335, 1356, 1355
812, 894, 895, 916, 915, 1335, 1336, 1357, 1356
813, 895, 896, 917, 916, 1336, 1337, 1358, 1357
814, 896, 897, 918, 917, 1337, 1338, 1359, 1358
815, 897, 898, 919, 918, 1338, 1339, 1360, 1359
816, 898, 899, 920, 919, 1339, 1340, 1361, 1360
817, 899, 900, 921, 920, 1340, 1341, 1362, 1361
818, 900, 901, 922, 921, 1341, 1342, 1363, 1362
819, 901, 902, 923, 922, 1342, 1343, 1364, 1363
820, 902, 903, 924, 923, 1343, 1344, 1365, 1364
821, 904, 905, 926, 925, 1345, 1346, 1367, 1366
822, 905, 906, 927, 926, 1346, 1347, 1368, 1367
823, 906, 907, 928, 927, 1347, 1348, 1369, 1368
824, 907, 908, 929, 928, 1348, 1349, 1370, 1369
825, 908, 909, 930, 929, 1349, 1350, 1371, 1370
826, 909, 910, 931, 930, 1350, 1351, 1372, 1371
827, 910, 911, 932, 931, 1351, 1352, 1373, 1372
828, 911, 912, 933, 932, 1352, 1353, 1374, 1373
829, 912, 913, 934, 933, 1353, 1354, 1375, 1374
830, 913, 914, 935, 934, 1354, 1355, 1376, 1375
831, 914, 915, 936, 935, 1355, 1356, 1377, 1376
832, 915, 916, 937, 936, 1356, 1357, 1378, 1377
833, 916, 917, 938, 937, 1357, 1358, 1379, 1378
834, 917, 918, 939, 938, 1358, 1359, 1380, 1379
835, 918, 919, 940, 939, 1359, 1360, 1381, 1380
836, 919, 920, 941, 940, 1360, 1361, 1382, 1381
837, 920, 921, 942, 941, 1361, 1362, 1383, 1382
838, 921, 922, 943, 942, 1362, 1363, 1384, 1383
839, 922, 923, 944, 943, 1363, 1364, 1385, 1384
840, 923, 924, 945, 944, 1364, 1365, 1386, 1385
841, 925, 926, 947, 946, 1366, 1367, 1388, 1387
842, 926, 927, 948, 947, 1367, 1368, 1389, 1388
843, 927, 928, 949, 948, 1368, 1369, 1390, 1389
844, 928, 929, 950, 949, 1369, 1370, 1391, 1390
845, 929, 930, 951, 950, 1370, 1371, 1392, 1391
846, 930, 931, 952, 951, 1371, 1372, 1393, 1392
847, 931, 932, 953, 952, 1372, 1373, 1394, 1393
848, 932, 933, 954, 953, 1373, 1374, 1395, 1394
849, 933, 934, 955, 954, 1374, 1375, 1396, 1395
850, 934, 935, 956, 955, 1375, 1376, 1397, 1396
851, 935, 936, 957, 956, 1376, 1377, 1398, 1397
852, 936, 937, 958, 957, 1377, 1378, 1399, 1398
853, 937, 938, 959, 958, 1378, 1379, 1400, 1399
854, 938, 939, 960, 959, 1379, 1380, 1401, 1400
855, 939, 940, 961, 960, 1380, 1381, 1402, 1401
856, 940, 941, 962, 961, 1381, 1382, 1403, 1402
857, 941, 942, 963, 962, 1382, 1383, 1404, 1403
858, 942, 943, 964, 963, 1383, 1384, 1405, 1404
859, 943, 944, 965, 964, 1384, 1385, 1406, 1405
860, 944, 945, 966, 965, 1385, 1386, 1407, 1406
861, 946, 947, 968, 967, 1387, 1388, 1409, 1408
862, 947, 948, 969, 968, 1388, 1389, 1410, 1409
863, 948, 949, 970, 969, 1389, 1390, 1411, 1410
864, 949, 950, 971, 970, 1390, 1391, 1412, 1411
865, 950, 951, 972, 971, 1391, 1392, 1413, 1412
866, 951, 952, 973, 972, 1392, 1393, 1414, 1413
867, 952, 953, 974, 973, 1393, 1394, 1415, 1414
868, 953, 954, 975, 974, 1394, 1395, 1416, 1415
869, 954, 955, 976, 975, 1395, 1396, 1417, 1416
870, 955, 956, 977, 976, 1396, 1397, 1418, 1417
871, 956, 957, 978, 977, 1397, 1398, 1419, 1418
872, 957, 958, 979, 978, 1398, 1399, 1420, 1419
873, 958, 959, 980, 979, 1399, 1400, 1421, 1420
874, 959, 960, 981, 980, 1400, 1401, 1422, 1421
875, 960, 961, 982, 981, 1401, 1402, 1423, 1422
876, 961, 962, 983, 982, 1402, 1403, 1424, 1423
877, 962, 963, 984, 983, 1403, 1404, 1425, 1424
878, 963, 964, 985, 984, 1404, 1405, 1426, 1425
879, 964, 965, 986, 985, 1405, 1406, 1427, 1426
880, 965, 966, 987, 986, 1406, 1407, 1428, 1427
881, 967, 968, 989, 988, 1408, 1409, 1430, 1429
882, 968, 969, 990, 989, 1409, 1410, 1431, 1430
883, 969, 970, 991, 990, 1410, 1411, 1432, 1431
884, 970, 971, 992, 991, 1411, 1412, 1433, 1432
885, 971, 972, 993, 992, 1412, 1413, 1434, 1433
886, 972, 973, 994, 993, 1413, 1414, 1435, 1434
887, 973, 974, 995, 994, 1414, 1415, 1436, 1435
888, 974, 975, 996, 995, 1415, 1416, 1437, 1436
889, 975, 976, 997, 996, 1416, 1417, 1438, 1437
890, 976, 977, 998, 997, 1417, 1418, 1439, 1438
891, 977, 978, 999, 998, 1418, 1419, 1440, 1439
892, 978, 979, 1000, 999, 1419, 1420, 1441, 1440
893, 979, 980, 1001, 1000, 1420, 1421, 1442, 1441
894, 980, 981, 1002, 1001, 1421, 1422, 1443, 1442
895, 981, 982, 1003, 1002, 1422, 1423, 1444, 1443
896, 982, 983, 1004, 1003, 1423, 1424, 1445, 1444
897, 983, 984, 1005, 1004, 1424, 1425, 1446, 1445
898, 984, 985, 1006, 1005, 1425, 1426, 1447, 1446
899, 985, 986, 1007, 1006, 1426, 1427, 1448, 1447
900, 986, 987, 1008, 1007, 1427, 1428, 1449, 1448
901, 988, 989, 1010, 1009, 1429, 1430, 1451, 1450
902, 989, 990, 1011, 1010, 1430, 1431, 1452, 1451
903, 990, 991, 1012, 1011, 1431, 1432, 1453, 1452
904, 991, 992, 1013, 1012, 1432, 1433, 1454, 1453
905, 992, 993, 1014, 1013, 1433, 1434, 1455, 1454
906, 993, 994, 1015, 1014, 1434, 1435, 1456, 1455
907, 994, 995, 1016, 1015, 1435, 1436, 1457, 1456
908, 995, 996, 1017, 1016, 1436, 1437, 1458, 1457
909, 996, 997, 1018, 1017, 1437, 1438, 1459, 1458
910, 997, 998, 1019, 1018, 1438, 1439, 1460, 1459
911, 998, 999, 1020, 1019, 1439, 1440, 1461, 1460
912, 999, 1000, 1021, 1020, 1440, 1441, 1462, 1461
913, 1000, 1001, 1022, 1021, 1441, 1442, 1463, 1462
914, 1001, 1002, 1023, 1022, 1442, 1443, 1464, 1463
915, 1002, 1003, 1024, 1023, 1443, 1444, 1465, 1464
916, 1003, 1004, 1025, 1024, 1444, 1445, 1466, 1465
917, 1004, 1005, 1026, 1025, 1445, 1446, 1467, 1466
918, 1005, 1006, 1027, 1026, 1446, 1447, 1468, 1467
919, 1006, 1007, 1028, 1027, 1447, 1448, 1469, 1468
920, 1007, 1008, 1029, 1028, 1448, 1449, 1470, 1469
921, 1009, 1010, 1031, 1030, 1450, 1451, 1472, 1471
922, 1010, 1011, 1032, 1031, 1451, 1452, 1473, 1472
923, 1011, 1012, 1033, 1032, 1452, 1453, 1474, 1473
924, 1012, 1013, 1034, 1033, 1453, 1454, 1475, 1474
925, 1013, 1014, 1035, 1034, 1454, 1455, 1476, 1475
926, 1014, 1015, 1036, 1035, 1455, 1456, 1477, 1476
927, 1015, 1016, 1037, 1036, 1456, 1457, 1478, 1477
928, 1016, 1017, 1038, 1037, 1457, 1458, 1479, 1478
929, 1017, 1018, 1039, 1038, 1458, 1459, 1480, 1479
930, 1018, 1019, 1040, 1039, 1459, 1460, 1481, 1480
931, 1019, 1020, 1041, 1040, 1460, 1461, 1482, 1481
932, 1020, 1021, 1042, 1041, 1461, 1462, 1483, 1482
933, 1021, 1022, 1043, 1042, 1462, 1463, 1484, 1483
934, 1022, 1023, 1044, 1043, 1463, 1464, 1485, 1484
935, 1023, 1024, 1045, 1044, 1464, 1465, 1486, 1485
936, 1024, 1025, 1046, 1045, 1465, 1466, 1487, 1486
937, 1025, 1026, 1047, 1046, 1466, 1467, 1488, 1487
938, 1026, 1027, 1048, 1047, 1467, 1468, 1489, 1488
939, 1027, 1028, 1049, 1048, 1468, 1469, 1490, 1489
940, 1028, 1029, 1050, 1049, 1469, 1470, 1491, 1490
941, 1030, 1031, 1052, 1051, 1471, 1472, 1493, 1492
942, 1031, 1032, 1053, 1052, 1472, 1473, 1494, 1493
943, 1032, 1033, 1054, 1053, 1473, 1474, 1495, 1494
944, 1033, 1034, 1055, 1054, 1474, 1475, 1496, 1495
945, 1034, 1035, 1056, 1055, 1475, 1476, 1497, 1496
946, 1035, 1036, 1057, 1056, 1476, 1477, 1498, 1497
947, 1036, 1037, 1058, 1057, 1477, 1478, 1499, 1498
948, 1037, 1038, 1059, 1058, 1478, 1479, 1500, 1499
949, 1038, 1039, 1060, 1059, 1479, 1480, 1501, 1500
950, 1039, 1040, 1061, 1060, 1480, 1481, 1502, 1501
951, 1040, 1041, 1062, 1061, 1481, 1482, 1503, 1502
952, 1041, 1042, 1063, 1062, 1482, 1483, 1504, 1503
953, 1042, 1043, 1064, 1063, 1483, 1484, 1505, 1504
954, 1043, 1044, 1065, 1064, 1484, 1485, 1506, 1505
955, 1044, 1045, 1066, 1065, 1485, 1486, 1507, 1506
956, 1045, 1046, 1067, 1066, 1486, 1487, 1508, 1507
957, 1046, 1047, 1068, 1067, 1487, 1488, 1509, 1508
958, 1047, 1048, 1069, 1068, 1488, 1489, 1510, 1509
959, 1048, 1049, 1070, 1069, 1489, 1490, 1511, 1510
960, 1049, 1050, 1071, 1070, 1490, 1491, 1512, 1511
961, 1051, 1052, 1073, 1072, 1492, 1493, 1514, 1513
962, 1052, 1053, 1074, 1073, 1493, 1494, 1515, 1514
963, 1053, 1054, 1075, 1074, 1494, 1495, 1516, 1515
964, 1054, 1055, 1076, 1075, 1495, 1496, 1517, 1516
965, 1055, 1056, 1077, 1076, 1496, 1497, 1518, 1517
966, 1056, 1057, 1078, 1077, 1497, 1498, 1519, 1518
967, 1057, 1058, 1079, 1078, 1498, 1499, 1520, 1519
968, 1058, 1059, 1080, 1079, 1499, 1500, 1521, 1520
969, 1059, 1060, 1081, 1080, 1500, 1501, 1522, 1521
970, 1060, 1061, 1082, 1081, 1501, 1502, 1523, 1522
971, 1061, 1062, 1083, 1082, 1502, 1503, 1524, 1523
972, 1062, 1063, 1084, 1083, 1503, 1504, 1525, 1524
973, 1063, 1064, 1085, 1084, 1504, 1505, 1526, 1525
974, 1064, 1065, 1086, 1085, 1505, 1506, 1527, 1526
975, 1065, 1066, 1087, 1086, 1506, 1507, 1528, 1527
976, 1066, 1067, 1088, 1087, 1507, 1508, 1529, 1528
977, 1067, 1068, 1089, 1088, 1508, 1509, 1530, 1529
978, 1068, 1069, 1090, 1089, 1509, 1510, 1531, 1530
979, 1069, 1070, 1091, 1090, 1510, 1511, 1532, 1531
980, 1070, 1071, 1092, 1091, 1511, 1512, 1533, 1532
981, 1072, 1073, 1094, 1093, 1513, 1514, 1535, 1534
982, 1073, 1074, 1095, 1094, 1514, 1515, 1536, 1535
983, 1074, 1075, 1096, 1095, 1515, 1516, 1537, 1536
984, 1075, 1076, 1097, 1096, 1516, 1517, 1538, 1537
985, 1076, 1077, 1098, 1097, 1517, 1518, 1539, 1538
986, 1077, 1078, 1099, 1098, 1518, 1519, 1540, 1539
987, 1078, 1079, 1100, 1099, 1519, 1520, 1541, 1540
988, 1079, 1080, 1101, 1100, 1520, 1521, 1542, 1541
989, 1080, 1081, 1102, 1101, 1521, 1522, 1543, 1542
990, 1081, 1082, 1103, 1102, 1522, 1523, 1544, 1543
991, 1082, 1083, 1104, 1103, 1523, 1524, 1545, 1544
992, 1083, 1084, 1105, 1104, 1524, 1525, 1546, 1545
993, 1084, 1085, 1106, 1105, 1525, 1526, 1547, 1546
994, 1085, 1086, 1107, 1106, 1526, 1527, 1548, 1547
995, 1086, 1087, 1108, 1107, 1527, 1528, 1549, 1548
996, 1087, 1088, 1109, 1108, 1528, 1529, 1550, 1549
997, 1088, 1089, 1110, 1109, 1529, 1530, 1551, 1550
998, 1089, 1090, 1111, 1110, 1530, 1531, 1552, 1551
999, 1090, 1091, 1112, 1111, 1531, 1532, 1553, 1552
1000, 1091, 1092, 1113, 1112, 1532, 1533, 1554, 1553
1001, 1093, 1094, 1115, 1114, 1534, 1535, 1556, 1555
1002, 1094, 1095, 1116, 1115, 1535, 1536, 1557, 1556
1003, 1095, 1096, 1117, 1116, 1536, 1537, 1558, 1557
1004, 1096, 1097, 1118, 1117, 1537, 1538, 1559, 1558
1005, 1097, 1098, 1119, 1118, 1538, 1539, 1560, 1559
1006, 1098, 1099, 1120, 1119, 1539, 1540, 1561, 1560
1007, 1099, 1100, 1121, 1120, 1540, 1541, 1562, 1561
1008, 1100, 1101, 1122, 1121, 1541, 1542, 1563, 1562
1009, 1101, 1102, 1123, 1122, 1542, 1543, 1564, 1563
1010, 1102, 1103, 1124, 1123, 1543, 1544, 1565, 1564
1011, 1103, 1104, 1125, 1124, 1544, 1545, 1566, 1565
1012, 1104, 1105, 1126, 1125, 1545, 1546, 1567, 1566
1013, 1105, 1106, 1127, 1126, 1546, 1547, 1568, 1567
1014, 1106, 1107, 1128, 1127, 1547, 1548, 1569, 1568
1015, 1107, 1108, 1129, 1128, 1548, 1549, 1570, 1569
1016, 1108, 1109, 1130, 1129, 1549, 1550, 1571, 1570
1017, 1109, 1110, 1131, 1130, 1550, 1551, 1572, 1571
1018, 1110, 1111, 1132, 1131, 1551, 1552, 1573, 1572
1019, 1111, 1112, 1133, 1132, 1552, 1553, 1574, 1573
1020, 1112, 1113, 1134, 1133, 1553, 1554, 1575, 1574
1021, 1114, 1115, 1136, 1135, 1555, 1556, 1577, 1576
1022, 1115, 1116, 1137, 1136, 1556, 1557, 1578, 1577
1023, 1116, 1117, 1138, 1137, 1557, 1558, 1579, 1578
1024, 1117, 1118, 1139, 1138, 1558, 1559, 1580, 1579
1025, 1118, 1119, 1140, 1139, 1559, 1560, 1581, 1580
1026, 1119, 1120, 1141, 1140, 1560, 1561, 1582, 1581
1027, 1120, 1121, 1142, 1141, 1561, 1562, 1583, 1582
1028, 1121, 1122, 1143, 1142, 1562, 1563, 1584, 1583
1029, 1122, 1123, 1144, 1143, 1563, 1564, 1585, 1584
1030, 1123, 1124, 1145, 1144, 1564, 1565, 1586, 1585
1031, 1124, 1125, 1146, 1145, 1565, 1566, 1587, 1586
1032, 1125, 1126, 1147, 1146, 1566, 1567, 1588, 1587
1033, 1126, 1127, 1148, 1147, 1567, 1568, 1589, 1588
1034, 1127, 1128, 1149, 1148, 1568, 1569, 1590, 1589
1035, 1128, 1129, 1150, 1149, 1569, 1570, 1591, 1590
1036, 1129, 1130, 1151, 1150, 1570, 1571, 1592, 1591
1037, 1130, 1131, 1152, 1151, 1571, 1572, 1593, 1592
1038, 1131, 1132, 1153, 1152, 1572, 1573, 1594, 1593
1039, 1132, 1133, 1154, 1153, 1573, 1574, 1595, 1594
1040, 1133, 1134, 1155, 1154, 1574, 1575, 1596, 1595
1041, 1135, 1136, 1157, 1156, 1576, 1577, 1598, 1597
1042, 1136, 1137, 1158, 1157, 1577, 1578, 1599, 1598
1043, 1137, 1138, 1159, 1158, 1578, 1579, 1600, 1599
1044, 1138, 1139, 1160, 1159, 1579, 1580, 1601, 1600
1045, 1139, 1140, 1161, 1160, 1580, 1581, 1602, 1601
1046, 1140, 1141, 1162, 1161, 1581, 1582, 1603, 1602
1047, 1141, 1142, 1163, 1162, 1582, 1583, 1604, 1603
1048, 1142, 1143, 1164, 1163, 1583, 1584, 1605, 1604
1049, 1143, 1144, 1165, 1164, 1584, 1585, 1606, 1605
1050, 1144, 1145, 1166, 1165, 1585, 1586, 1607, 1606
1051, 1145, 1146, 1167, 1166, 1586, 1587, 1608, 1607
1052, 1146, 1147, 1168, 1167, 1587, 1588, 1609, 1608
1053, 1147, 1148, 1169, 1168, 1588, 1589, 1610, 1609
1054, 1148, 1149, 1170, 1169, 1589, 1590, 1611, 1610
1055, 1149, 1150, 1171, 1170, 1590, 1591, 1612, 1611
1056, 1150, 1151, 1172, 1171, 1591, 1592, 1613, 1612
1057, 1151, 1152, 1173, 1172, 1592, 1593, 1614, 1613
1058, 1152, 1153, 1174, 1173, 1593, 1594, 1615, 1614
1059, 1153, 1154, 1175, 1174, 1594, 1595, 1616, 1615
1060, 1154, 1155, 1176, 1175, 1595, 1596, 1617, 1616
1061, 1156, 1157, 1178, 1177, 1597, 1598, 1619, 1618
1062, 1157, 1158, 1179, 1178, 1598, 1599, 1620, 1619
1063, 1158, 1159, 1180, 1179, 1599, 1600, 1621, 1620
1064, 1159, 1160, 1181, 1180, 1600, 1601, 1622, 1621
1065, 1160, 1161, 1182, 1181, 1601, 1602, 1623, 1622
1066, 1161, 1162, 1183, 1182, 1602, 1603, 1624, 1623
1067, 1162, 1163, 1184, 1183, 1603, 1604, 1625, 1624
1068, 1163, 1164, 1185, 1184, 1604, 1605, 1626, 1625
1069, 1164, 1165, 1186, 1185, 1605, 1606, 1627, 1626
1070, 1165, 1166, 1187, 1186, 1606, 1607, 1628, 1627
1071, 1166, 1167, 1188, 1187, 1607, 1608, 1629, 1628
1072, 1167, 1168, 1189, 1188, 1608, 1609, 1630, 1629
1073, 1168, 1169, 1190, 1189, 1609, 1610, 1631, 1630
1074, 1169, 1170, 1191, 1190, 1610, 1611, 1632, 1631
1075, 1170, 1171, 1192, 1191, 1611, 1612, 1633, 1632
1076, 1171, 1172, 1193, 1192, 1612, 1613, 1634, 1633
1077, 1172, 1173, 1194, 1193, 1613, 1614, 1635, 1634
1078, 1173, 1174, 1195, 1194, 1614, 1615, 1636, 1635
1079, 1174, 1175, 1196, 1195, 1615, 1616, 1637, 1636
1080, 1175, 1176, 1197, 1196, 1616, 1617, 1638, 1637
1081, 1177, 1178, 1199, 1198, 1618, 1619, 1640, 1639
1082, 1178, 1179, 1200, 1199, 1619, 1620, 1641, 1640
1083, 1179, 1180, 1201, 1200, 1620, 1621, 1642, 1641
1084, 1180, 1181, 1202, 1201, 1621, 1622, 1643, 1642
1085, 1181, 1182, 1203, 1202, 1622, 1623, 1644, 1643
1086, 1182, 1183, 1204, 1203, 1623, 1624, 1645, 1644
1087, 1183, 1184, 1205, 1204, 1624, 1625, 1646, 1645
1088, 1184, 1185, 1206, 1205, 1625, 1626, 1647, 1646
1089, 1185, 1186, 1207, 1206, 1626, 1627, 1648, 1647
1090, 1186, 1187, 1208, 1207, 1627, 1628, 1649, 1648
1091, 1187, 1188, 1209, 1208, 1628, 1629, 1650, 1649
1092, 1188, 1189, 1210, 1209, 1629, 1630, 1651, 1650
1093, 1189, 1190, 1211, 1210, 1630, 1631, 1652, 1651
1094, 1190, 1191, 1212, 1211, 1631, 1632, 1653, 1652
1095, 1191, 1192, 1213, 1212, 1632, 1633, 1654, 1653
1096, 1192, 1193, 1214, 1213, 1633, 1634, 1655, 1654
1097, 1193, 1194, 1215, 1214, 1634, 1635, 1656, 1655
1098, 1194, 1195, 1216, 1215, 1635, 1636, 1657, 1656
1099, 1195, 1196, 1217, 1216, 1636, 1637, 1658, 1657
1100, 1196, 1197, 1218, 1217, 1637, 1638, 1659, 1658
1101, 1198, 1199, 1220, 1219, 1639, 1640, 1661, 1660
1102, 1199, 1200, 1221, 1220, 1640, 1641, 1662, 1661
1103, 1200, 1201, 1222, 1221, 1641, 1642, 1663, 1662
1104, 1201, 1202, 1223, 1222, 1642, 1643, 1664, 1663
1105, 1202, 1203, 1224, 1223, 1643, 1644, 1665, 1664
1106, 1203, 1204, 1225, 1224, 1644, 1645, 1666, 1665
1107, 1204, 1205, 1226, 1225, 1645, 1646, 1667, 1666
1108, 1205, 1206, 1227, 1226, 1646, 1647, 1668, 1667
1109, 1206, 1207, 1228, 1227, 1647, 1648, 1669, 1668
1110, 1207, 1208, 1229, 1228, 1648, 1649, 1670, 1669
1111, 1208, 1209, 1230, 1229, 1649, 1650, 1671, 1670
1112, 1209, 1210, 1231, 1230, 1650, 1651, 1672, 1671
1113, 1210, 1211, 1232, 1231, 1651, 1652, 1673, 1672
1114, 1211, 1212, 1233, 1232, 1652, 1653, 1674, 1673
1115, 1212, 1213, 1234, 1233, 1653, 1654, 1675, 1674
1116, 1213, 1214, 1235, 1234, 1654, 1655, 1676, 1675
1117, 1214, 1215, 1236, 1235, 1655, 1656, 1677, 1676
1118, 1215, 1216, 1237, 1236, 1656, 1657, 1678, 1677
1119, 1216, 1217, 1238, 1237, 1657, 1658, 1679, 1678
1120, 1217, 1218, 1239, 1238, 1658, 1659, 1680, 1679
1121, 1219, 1220, 1241, 1240, 1660, 1661, 1682, 1681
1122, 1220, 1221, 1242, 1241, 1661, 1662, 1683, 1682
1123, 1221, 1222, 1243, 1242, 1662, 1663, 1684, 1683
1124, 1222, 1223, 1244, 1243, 1663, 1664, 1685, 1684
1125, 1223, 1224, 1245, 1244, 1664, 1665, 1686, 1685
1126, 1224, 1225, 1246, 1245, 1665, 1666, 1687, 1686
1127, 1225, 1226, 1247, 1246, 1666, 1667, 1688, 1687
1128, 1226, 1227, 1248, 1247, 1667, 1668, 1689, 1688
1129, 1227, 1228, 1249, 1248, 1668, 1669, 1690, 1689
1130, 1228, 1229, 1250, 1249, 1669, 1670, 1691, 1690
1131, 1229, 1230, 1251, 1250, 1670, 1671, 1692, 1691
1132, 1230, 1231, 1252, 1251, 1671, 1672, 1693, 1692
1133, 1231, 1232, 1253, 1252, 1672, 1673, 1694, 1693
1134, 1232, 1233, 1254, 1253, 1673, 1674, 1695, 1694
1135, 1233, 1234, 1255, 1254, 1674, 1675, 1696, 1695
1136, 1234, 1235, 1256, 1255, 1675, 1676, 1697, 1696
1137, 1235, 1236, 1257, 1256, 1676, 1677, 1698, 1697
1138, 1236, 1237, 1258, 1257, 1677, 1678, 1699, 1698
1139, 1237, 1238, 1259, 1258, 1678, 1679, 1700, 1699
1140, 1238, 1239, 1260, 1259, 1679, 1680, 1701, 1700
1141, 1240, 1241, 1262, 1261, 1681, 1682, 1703, 1702
1142, 1241, 1242, 1263, 1262, 1682, 1683, 1704, 1703
1143, 1242, 1243, 1264, 1263, 1683, 1684, 1705, 1704
1144, 1243, 1244, 1265, 1264, 1684, 1685, 1706, 1705
1145, 1244, 1245, 1266, 1265, 1685, 1686, 1707, 1706
1146, 1245, 1246, 1267, 1266, 1686, 1687, 1708, 1707
1147, 1246, 1247, 1268, 1267, 1687, 1688, 1709, 1708
1148, 1247, 1248, 1269, 1268, 1688, 1689, 1710, 1709
1149, 1248, 1249, 1270, 1269, 1689, 1690, 1711, 1710
1150, 1249, 1250, 1271, 1270, 1690, 1691, 1712, 1711
1151, 1250, 1251, 1272, 1271, 1691, 1692, 1713, 1712
1152, 1251, 1252, 1273, 1272, 1692, 1693, 1714, 1713
1153, 1252, 1253, 1274, 1273, 1693, 1694, 1715, 1714
1154, 1253, 1254, 1275, 1274, 1694, 1695, 1716, 1715
1155, 1254, 1255, 1276, 1275, 1695, 1696, 1717, 1716
1156, 1255, 1256, 1277, 1276, 1696, 1697, 1718, 1717
1157, 1256, 1257, 1278, 1277, 1697, 1698, 1719, 1718
1158, 1257, 1258, 1279, 1278, 1698, 1699, 1720, 1719
1159, 1258, 1259, 1280, 1279, 1699, 1700, 1721, 1720
1160, 1259, 1260, 1281, 1280, 1700, 1701, 1722, 1721
1161, 1261, 1262, 1283, 1282, 1702, 1703, 1724, 1723
1162, 1262, 1263, 1284, 1283, 1703, 1704, 1725, 1724
1163, 1263, 1264, 1285, 1284, 1704, 1705, 1726, 1725
1164, 1264, 1265, 1286, 1285, 1705, 1706, 1727, 1726
1165, 1265, 1266, 1287, 1286, 1706, 1707, 1728, 1727
1166, 1266, 1267, 1288, 1287, 1707, 1708, 1729, 1728
1167, 1267, 1268, 1289, 1288, 1708, 1709, 1730, 1729
1168, 1268, 1269, 1290, 1289, 1709, 1710, 1731, 1730
1169, 1269, 1270, 1291, 1290, 1710, 1711, 1732, 1731
1170, 1270, 1271, 1292, 1291, 1711, 1712, 1733, 1732
1171, 1271, 1272, 1293, 1292, 1712, 1713, 1734, 1733
1172, 1272, 1273, 1294, 1293, 1713, 1714, 1735, 1734
1173, 1273, 1274, 1295, 1294, 1714, 1715, 1736, 1735
1174, 1274, 1275, 1296, 1295, 1715, 1716, 1737, 1736
1175, 1275, 1276, 1297, 1296, 1716, 1717, 1738, 1737
1176, 1276, 1277, 1298, 1297, 1717, 1718, 1739, 1738
1177, 1277, 1278, 1299, 1298, 1718, 1719, 1740, 1739
1178, 1278, 1279, 1300, 1299, 1719, 1720, 1741, 1740
1179, 1279, 1280, 1301, 1300, 1720, 1721, 1742, 1741
1180, 1280, 1281, 1302, 1301, 1721, 1722, 1743, 1742
1181, 1282, 1283, 1304, 1303, 1723, 1724, 1745, 1744
1182, 1283, 1284, 1305, 1304, 1724, 1725, 1746, 1745
1183, 1284, 1285, 1306, 1305, 1725, 1726, 1747, 1746
1184, 1285, 1286, 1307, 1306, 1726, 1727, 1748, 1747
1185, 1286, 1287, 1308, 1307, 1727, 1728, 1749, 1748
1186, 1287, 1288, 1309, 1308, 1728, 1729, 1750, 1749
1187, 1288, 1289, 1310, 1309, 1729, 1730, 1751, 1750
1188, 1289, 1290, 1311, 1310, 1730, 1731, 1752, 1751
1189, 1290, 1291, 1312, 1311, 1731, 1732, 1753, 1752
1190, 1291, 1292, 1313, 1312, 1732, 1733, 1754, 1753
1191, 1292, 1293, 1314, 1313, 1733, 1734, 1755, 1754
1192, 1293, 1294, 1315, 1314, 1734, 1735, 1756, 1755
1193, 1294, 1295, 1316, 1315, 1735, 1736, 1757, 1756
1194, 1295, 1296, 1317, 1316, 1736, 1737, 1758, 1757
1195, 1296, 1297, 1318, 1317, 1737, 1738, 1759, 1758
1196, 1297, 1298, 1319, 1318, 1738, 1739, 1760, 1759
1197, 1298, 1299, 1320, 1319, 1739, 1740, 1761, 1760
1198, 1299, 1300, 1321, 1320, 1740, 1741, 1762, 1761
1199, 1300, 1301, 1322, 1321, 1741, 1742, 1763, 1762
1200, 1301, 1302, 1323, 1322, 1742, 1743, 1764, 1763
1201, 1324, 1325, 1346, 1345, 1765, 1766, 1787, 1786
1202, 1325, 1326, 1347, 1346, 1766, 1767, 1788, 1787
1203, 1326, 1327, 1348, 1347, 1767, 1768, 1789, 1788
1204, 1327, 1328, 1349, 1348, 1768, 1769, 1790, 1789
1205, 1328, 1329, 1350, 1349, 1769, 1770, 1791, 1790
1206, 1329, 1330, 1351, 1350, 1770, 1771, 1792, 1791
1207, 1330, 1331, 1352, 1351, 1771, 1772, 1793, 1792
1208, 1331, 1332, 1353, 1352, 1772, 1773, 1794, 1793
1209, 1332, 1333, 1354, 1353, 1773, 1774, 1795, 1794
1210, 1333, 1334, 1355, 1354, 1774, 1775, 1796, 1795
1211, 1334, 1335, 1356, 1355, 1775, 1776, 1797, 1796
1212, 1335, 1336, 1357, 1356, 1776, 1777, 1798, 1797
1213, 1336, 1337, 1358, 1357, 1777, 1778, 1799, 1798
1214, 1337, 1338, 1359, 1358, 1778, 1779, 1800, 1799
1215, 1338, 1339, 1360, 1359, 1779, 1780, 1801, 1800
1216, 1339, 1340, 1361, 1360, 1780, 1781, 1802, 1801
1217, 1340, 1341, 1362, 1361, 1781, 1782, 1803, 1802
1218, 1341, 1342, 1363, 1362, 1782, 1783, 1804, 1803
1219, 1342, 1343, 1364, 1363, 1783, 1784, 1805, 1804
1220, 1343, 1344, 1365, 1364, 1784, 1785, 1806, 1805
1221, 1345, 1346, 1367, 1366, 1786, 1787, 1808, 1807
1222, 1346, 1347, 1368, 1367, 1787, 1788, 1809, 1808
1223, 1347, 1348, 1369, 1368, 1788, 1789, 1810, 1809
1224, 1348, 1349, 1370, 1369, 1789, 1790, 1811, 1810
1225, 1349, 1350, 1371, 1370, 1790, 1791, 1812, 1811
1226, 1350, 1351, 1372, 1371, 1791, 1792, 1813, 1812
1227, 1351, 1352, 1373, 1372, 1792, 1793, 1814, 1813
1228, 1352, 1353, 1374, 1373, 1793, 1794, 1815, 1814
1229, 1353, 1354, 1375, 1374, 1794, 1795, 1816, 1815
1230, 1354, 1355, 1376, 1375, 1795, 1796, 1817, 1816
1231, 1355, 1356, 1377, 1376, 1796, 1797, 1818, 1817
1232, 1356, 1357, 1378, 1377, 1797, 1798, 1819, 1818
1233, 1357, 1358, 1379, 1378, 1798, 1799, 1820, 1819
1234, 1358, 1359, 1380, 1379, 1799, 1800, 1821, 1820
1235, 1359, 1360, 1381, 1380, 1800, 1801, 1822, 1821
1236, 1360, 1361, 1382, 1381, 1801, 1802, 1823, 1822
1237, 1361, 1362, 1383, 1382, 1802, 1803, 1824, 1823
1238, 1362, 1363, 1384, 1383, 1803, 1804, 1825, 1824
1239, 1363, 1364, 1385, 1384, 1804, 1805, 1826, 1825
1240, 1364, 1365, 1386, 1385, 1805, 1806, 1827, 1826
1241, 1366, 1367, 1388, 1387, 1807, 1808, 1829, 1828
1242, 1367, 1368, 1389, 1388, 1808, 1809, 1830, 1829
1243, 1368, 1369, 1390, 1389, 1809, 1810, 1831, 1830
1244, 1369, 1370, 1391, 1390, 1810, 1811, 1832, 1831
1245, 1370, 1371, 1392, 1391, 1811, 1812, 1833, 1832
1246, 1371, 1372, 1393, 1392, 1812, 1813, 1834, 1833
1247, 1372, 1373, 1394, 1393, 1813, 1814, 1835, 1834
1248, 1373, 1374, 1395, 1394, 1814, 1815, 1836, 1835
1249, 1374, 1375, 1396, 1395, 1815, 1816, 1837, 1836
1250, 1375, 1376, 1397, 1396, 1816, 1817, 1838, 1837
1251, 1376, 1377, 1398, 1397, 1817, 1818, 1839, 1838
1252, 1377, 1378, 1399, 1398, 1818, 1819, 1840, 1839
1253, 1378, 1379, 1400, 1399, 1819, 1820, 1841, 1840
1254, 1379, 1380, 1401, 1400, 1820, 1821, 1842, 1841
1255, 1380, 1381, 1402, 1401, 1821, 1822, 1843, 1842
1256, 1381, 1382, 1403, 1402, 1822, 1823, 1844, 1843
1257, 1382, 1383, 1404, 1403, 1823, 1824, 1845, 1844
1258, 1383, 1384, 1405, 1404, 1824, 1825, 1846, 1845
1259, 1384, 1385, 1406, 1405, 1825, 1826, 1847, 1846
1260, 1385, 1386, 1407, 1406, 1826, 1827, 1848, 1847
1261, 1387, 1388, 1409, 1408, 1828, 1829, 1850, 1849
1262, 1388, 1389, 1410, 1409, 1829, 1830, 1851, 1850
1263, 1389, 1390, 1411, 1410, 1830, 1831, 1852, 1851
1264, 1390, 1391, 1412, 1411, 1831, 1832, 1853, 1852
1265, 1391, 1392, 1413, 1412, 1832, 1833, 1854, 1853
1266, 1392, 1393, 1414, 1413, 1833, 1834, 1855, 1854
1267, 1393, 1394, 1415, 1414, 1834, 1835, 1856, 1855
1268, 1394, 1395, 1416, 1415, 1835, 1836, 1857, 1856
1269, 1395, 1396, 1417, 1416, 1836, 1837, 1858, 1857
1270, 1396, 1397, 1418, 1417, 1837, 1838, 1859, 1858
1271, 1397, 1398, 1419, 1418, 1838, 1839, 1860, 1859
1272, 1398, 1399, 1420, 1419, 1839, 1840, 1861, 1860
1273, 1399, 1400, 1421, 1420, 1840, 1841, 1862, 1861
1274, 1400, 1401, 1422, 1421, 1841, 1842, 1863, 1862
1275, 1401, 1402, 1423, 1422, 1842, 1843, 1864, 1863
1276, 1402, 1403, 1424, 1423, 1843, 1844, 1865, 1864
1277, 1403, 1404, 1425, 1424, 1844, 1845, 1866, 1865
1278, 1404, 1405, 1426, 1425, 1845, 1846, 1867, 1866
1279, 1405, 1406, 1427, 1426, 1846, 1847, 1868, 1867
1280, 1406, 1407, 1428, 1427, 1847, 1848, 1869, 1868
1281, 1408, 1409, 1430, 1429, 1849, 1850, 1871, 1870
1282, 1409, 1410, 1431, 1430, 1850, 1851, 1872, 1871
1283, 1410, 1411, 1432, 1431, 1851, 1852, 1873, 1872
1284, 1411, 1412, 1433, 1432, 1852, 1853, 1874, 1873
1285, 1412, 1413, 1434, 1433, 1853, 1854, 1875, 1874
1286, 1413, 1414, 1435, 1434, 1854, 1855, 1876, 1875
1287, 1414, 1415, 1436, 1435, 1855, 1856, 1877, 1876
1288, 1415, 1416, 1437, 1436, 1856, 1857, 1878, 1877
1289, 1416, 1417, 1438, 1437, 1857, 1858, 1879, 1878
1290, 1417, 1418, 1439, 1438, 1858, 1859, 1880, 1879
1291, 1418, 1419, 1440, 1439, 1859, 1860, 1881, 1880
1292, 1419, 1420, 1441, 1440, 1860, 1861, 1882, 1881
1293, 1420, 1421, 1442, 1441, 1861, 1862, 1883, 1882
1294, 1421, 1422, 1443, 1442, 1862, 1863, 1884, 1883
1295, 1422, 1423, 1444, 1443, 1863, 1864, 1885, 1884
1296, 1423, 1424, 1445, 1444, 1864, 1865, 1886, 1885
1297, 1424, 1425, 1446, 1445, 1865, 1866, 1887, 1886
1298, 1425, 1426, 1447, 1446, 1866, 1867, 1888, 1887
1299, 1426, 1427, 1448, 1447, 1867, 1868, 1889, 1888
1300, 1427, 1428, 1449, 1448, 1868, 1869, 1890, 1889
1301, 1429, 1430, 1451, 1450, 1870, 1871, 1892, 1891
1302, 1430, 1431, 1452, 1451, 1871, 1872, 1893, 1892
1303, 1431, 1432, 1453, 1452, 1872, 1873, 1894, 1893
1304, 1432, 1433, 1454, 1453, 1873, 1874, 1895, 1894
1305, 1433, 1434, 1455, 1454, 1874, 1875, 1896, 1895
1306, 1434, 1435, 1456, 1455, 1875, 1876, 1897, 1896
1307, 1435, 1436, 1457, 1456, 1876, 1877, 1898, 1897
1308, 1436, 1437, 1458, 1457, 1877, 1878, 1899, 1898
1309, 1437, 1438, 1459, 1458, 1878, 1879, 1900, 1899
1310, 1438, 1439, 1460, 1459, 1879, 1880, 1901, 1900
1311, 1439, 1440, 1461, 1460, 1880, 1881, 1902, 1901
1312, 1440, 1441, 1462, 1461, 1881, 1882, 1903, 1902
1313, 1441, 1442, 1463, 1462, 1882, 1883, 1904, 1903
1314, 1442, 1443, 1464, 1463, 1883, 1884, 1905, 1904
1315, 1443, 1444, 1465, 1464, 1884, 1885, 1906, 1905
1316, 1444, 1445, 1466, 1465, 1885, 1886, 1907, 1906
1317, 1445, 1446, 1467, 1466, 1886, 1887, 1908, 1907
1318, 1446, 1447, 1468, 1467, 1887, 1888, 1909, 1908
1319, 1447, 1448, 1469, 1468, 1888, 1889, 1910, 1909
1320, 1448, 1449, 1470, 1469, 1889, 1890, 1911, 1910
1321, 1450, 1451, 1472, 1471, 1891, 1892, 1913, 1912
1322, 1451, 1452, 1473, 1472, 1892, 1893, 1914, 1913
1323, 1452, 1453, 1474, 1473, 1893, 1894, 1915, 1914
1324, 1453, 1454, 1475, 1474, 1894, 1895, 1916, 1915
1325, 1454, 1455, 1476, 1475, 1895, 1896, 1917, 1916
1326, 1455, 1456, 1477, 1476, 1896, 1897, 1918, 1917
1327, 1456, 1457, 1478, 1477, 1897, 1898, 1919, 1918
1328, 1457, 1458, 1479, 1478, 1898, 1899, 1920, 1919
1329, 1458, 1459, 1480, 1479, 1899, 1900, 1921, 1920
1330, 1459, 1460, 1481, 1480, 1900, 1901, 1922, 1921
1331, 1460, 1461, 1482, 1481, 1901, 1902, 1923, 1922
1332, 1461, 1462, 1483, 1482, 1902, 1903, 1924, 1923
1333, 1462, 1463, 1484, 1483, 1903, 1904, 1925, 1924
1334, 1463, 1464, 1485, 1484, 1904, 1905, 1926, 1925
1335, 1464, 1465, 1486, 1485, 1905, 1906, 1927, 1926
1336, 1465, 1466, 1487, 1486, 1906, 1907, 1928, 1927
1337, 1466, 1467, 1488, 1487, 1907, 1908, 1929, 1928
1338, 1467, 1468, 1489, 1488, 1908, 1909, 1930, 1929
1339, 1468, 1469, 1490, 1489, 1909, 1910, 1931, 1930
1340, 1469, 1470, 1491, 1490, 1910, 1911, 1932, 1931
1341, 1471, 1472, 1493, 1492, 1912, 1913, 1934, 1933
1342, 1472, 1473, 1494, 1493, 1913, 1914, 1935, 1934
1343, 1473, 1474, 1495, 1494, 1914, 1915, 1936, 1935
1344, 1474, 1475, 1496, 1495, 1915, 1916, 1937, 1936
1345, 1475, 1476, 1497, 1496, 1916, 1917, 1938, 1937
1346, 1476, 1477, 1498, 1497, 1917, 1918, 1939, 1938
1347, 1477, 1478, 1499, 1498, 1918, 1919, 1940, 1939
1348, 1478, 1479, 1500, 1499, 1919, 1920, 1941, 1940
1349, 1479, 1480, 1501, 1500, 1920, 1921, 1942, 1941
1350, 1480, 1481, 1502, 1501, 1921, 1922, 1943, 1942
1351, 1481, 1482, 1503, 1502, 1922, 1923, 1944, 1943
1352, 1482, 1483, 1504, 1503, 1923, 1924, 1945, 1944
1353, 1483, 1484, 1505, 1504, 1924, 1925, 1946, 1945
1354, 1484, 1485, 1506, 1505, 1925, 1926, 1947, 1946
1355, 1485, 1486, 1507, 1506, 1926, 1927, 1948, 1947
1356, 1486, 1487, 1508, 1507, 1927, 1928, 1949, 1948
1357, 1487, 1488, 1509, 1508, 1928, 1929, 1950, 1949
1358, 1488, 1489, 1510, 1509, 1929, 1930, 1951, 1950
1359, 1489, 1490, 1511, 1510, 1930, 1931, 1952, 1951
1360, 1490, 1491, 1512, 1511, 1931, 1932, 1953, 1952
1361, 1492, 1493, 1514, 1513, 1933, 1934, 1955, 1954
1362, 1493, 1494, 1515, 1514, 1934, 1935, 1956, 1955
1363, 1494, 1495, 1516, 1515, 1935, 1936, 1957, 1956
1364, 1495, 1496, 1517, 1516, 1936, 1937, 1958, 1957
1365, 1496, 1497, 1518, 1517, 1937, 1938, 1959, 1958
1366, 1497, 1498, 1519, 1518, 1938, 1939, 1960, 1959
1367, 1498, 1499, 1520, 1519, 1939, 1940, 1961, 1960
1368, 1499, 1500, 1521, 1520, 1940, 1941, 1962, 1961
1369, 1500, 1501, 1522, 1521, 1941, 1942, 1963, 1962
1370, 1501, 1502, 1523, 1522, 1942, 1943, 1964, 1963
1371, 1502, 1503, 1524, 1523, 1943, 1944, 1965, 1964
1372, 1503, 1504, 1525, 1524, 1944, 1945, 1966, 1965
1373, 1504, 1505, 1526, 1525, 1945, 1946, 1967, 1966
1374, 1505, 1506, 1527, 1526, 1946, 1947, 1968, 1967
1375, 1506, 1507, 1528, 1527, 1947, 1948, 1969, 1968
1376, 1507, 1508, 1529, 1528, 1948, 1949, 1970, 1969
1377, 1508, 1509, 1530, 1529, 1949, 1950, 1971, 1970
1378, 1509, 1510, 1531, 1530, 1950, 1951, 1972, 1971
1379, 1510, 1511, 1532, 1531, 1951, 1952, 1973, 1972
1380, 1511, 1512, 1533, 1532, 1952, 1953, 1974, 1973
1381, 1513, 1514, 1535, 1534, 1954, 1955, 1976, 1975
1382, 1514, 1515, 1536, 1535, 1955, 1956, 1977, 1976
1383, 1515, 1516, 1537, 1536, 1956, 1957, 1978, 1977
1384, 1516, 1517, 1538, 1537, 1957, 1958, 1979, 1978
1385, 1517, 1518, 1539, 1538, 1958, 1959, 1980, 1979
1386, 1518, 1519, 1540, 1539, 1959, 1960, 1981, 1980
1387, 1519, 1520, 1541, 1540, 1960, 1961, 1982, 1981
1388, 1520, 1521, 1542, 1541, 1961, 1962, 1983, 1982
1389, 1521, 1522, 1543, 1542, 1962, 1963, 1984, 1983
1390, 1522, 1523, 1544, 1543, 1963, 1964, 1985, 1984
1391, 1523, 1524, 1545, 1544, 1964, 1965, 1986, 1985
1392, 1524, 1525, 1546, 1545, 1965, 1966, 1987, 1986
1393, 1525, 1526, 1547, 1546, 1966, 1967, 1988, 1987
1394, 1526, 1527, 1548, 1547, 1967, 1968, 1989, 1988
1395, 1527, 1528, 1549, 1548, 1968, 1969, 1990, 1989
1396, 1528, 1529, 1550, 1549, 1969, 1970, 1991, 1990
1397, 1529, 1530, 1551, 1550, 1970, 1971, 1992, 1991
1398, 1530, 1531, 1552, 1551, 1971, 1972, 1993, 1992
1399, 1531, 1532, 1553, 1552, 1972, 1973, 1994, 1993
1400, 1532, 1533, 1554, 1553, 1973, 1974, 1995, 1994
1401, 1534, 1535, 1556, 1555, 1975, 1976, 1997, 1996
1402, 1535, 1536, 1557, 1556, 1976, 1977, 1998, 1997
1403, 1536, 1537, 1558, 1557, 1977, 1978, 1999, 1998
1404, 1537, 1538, 1559, 1558, 1978, 1979, 2000, 1999
1405, 1538, 1539, 1560, 1559, 1979, 1980, 2001, 2000
1406, 1539, 1540, 1561, 1560, 1980, 1981, 2002, 2001
1407, 1540, 1541, 1562, 1561, 1981, 1982, 2003, 2002
1408, 1541, 1542, 1563, 1562, 1982, 1983, 2004, 2003
1409, 1542, 1543, 1564, 1563, 1983, 1984, 2005, 2004
1410, 1543, 1544, 1565, 1564, 1984, 1985, 2006, 2005
1411, 1544, 1545, 1566, 1565, 1985, 1986, 2007, 2006
1412, 1545, 1546, 1567, 1566, 1986, 1987, 2008, 2007
1413, 1546, 1547, 1568, 1567, 1987, 1988, 2009, 2008
1414, 1547, 1548, 1569, 1568, 1988, 1989, 2010, 2009
1415, 1548, 1549, 1570, 1569, 1989, 1990, 2011, 2010
1416, 1549, 1550, 1571, 1570, 1990, 1991, 2012, 2011
1417, 1550, 1551, 1572, 1571, 1991, 1992, 2013, 2012
1418, 1551, 1552, 1573, 1572, 1992, 1993, 2014, 2013
1419, 1552, 1553, 1574, 1573, 1993, 1994, 2015, 2014
1420, 1553, 1554, 1575, 1574, 1994, 1995, 2016, 2015
1421, 1555, 1556, 1577, 1576, 1996, 1997, 2018, 2017
1422, 1556, 1557, 1578, 1577, 1997, 1998, 2019, 2018
1423, 1557, 1558, 1579, 1578, 1998, 1999, 2020, 2019
1424, 1558, 1559, 1580, 1579, 1999, 2000, 2021, 2020
1425, 1559, 1560, 1581, 1580, 2000, 2001, 2022, 2021
1426, 1560, 1561, 1582, 1581, 2001, 2002, 2023, 2022
1427, 1561, 1562, 1583, 1582, 2002, 2003, 2024, 2023
1428, 1562, 1563, 1584, 1583, 2003, 2004, 2025, 2024
1429, 1563, 1564, 1585, 1584, 2004, 2005, 2026, 2025
1430, 1564, 1565, 1586, 1585, 2005, 2006, 2027, 2026
1431, 1565, 1566, 1587, 1586, 2006, 2007, 2028, 2027
1432, 1566, 1567, 1588, 1587, 2007, 2008, 2029, 2028
1433, 1567, 1568, 1589, 1588, 2008, 2009, 2030, 2029
1434, 1568, 1569, 1590, 1589, 2009, 2010, 2031, 2030
1435, 1569, 1570, 1591, 1590, 2010, 2011, 2032, 2031
1436, 1570, 1571, 1592, 1591, 2011, 2012, 2033, 2032
1437, 1571, 1572, 1593, 1592, 2012, 2013, 2034, 2033
1438, 1572, 1573, 1594, 1593, 2013, 2014, 2035, 2034
1439, 1573, 1574, 1595, 1594, 2014, 2015, 2036, 2035
1440, 1574, 1575, 1596, 1595, 2015, 2016, 2037, 2036
1441, 1576, 1577, 1598, 1597, 2017, 2018, 2039, 2038
1442, 1577, 1578, 1599, 1598, 2018, 2019, 2040, 2039
1443, 1578, 1579, 1600, 1599, 2019, 2020, 2041, 2040
1444, 1579, 1580, 1601, 1600, 2020, 2021, 2042, 2041
1445, 1580, 1581, 1602, 1601, 2021, 2022, 2043, 2042
1446, 1581, 1582, 1603, 1602, 2022, 2023, 2044, 2043
1447, 1582, 1583, 1604, 1603, 2023, 2024, 2045, 2044
1448, 1583, 1584, 1605, 1604, 2024, 2025, 2046, 2045
1449, 1584, 1585, 1606, 1605, 2025, 2026, 2047, 2046
1450, 1585, 1586, 1607, 1606, 2026, 2027, 2048, 2047
1451, 1586, 1587, 1608, 1607, 2027, 2028, 2049, 2048
1452, 1587, 1588, 1609, 1608, 2028, 2029, 2050, 2049
1453, 1588, 1589, 1610, 1609, 2029, 2030, 2051, 2050
1454, 1589, 1590, 1611, 1610, 2030, 2031, 2052, 2051
1455, 1590, 1591, 1612, 1611, 2031, 2032, 2053, 2052
1456, 1591, 1592, 1613, 1612, 2032, 2033, 2054, 2053
1457, 1592, 1593, 1614, 1613, 2033, 2034, 2055, 2054
1458, 1593, 1594, 1615, 1614, 2034, 2035, 2056, 2055
1459, 1594, 1595, 1616, 1615, 2035, 2036, 2057, 2056
1460, 1595, 1596, 1617, 1616, 2036, 2037, 2058, 2057
1461, 1597, 1598, 1619, 1618, 2038, 2039, 2060, 2059
1462, 1598, 1599, 1620, 1619, 2039, 2040, 2061, 2060
1463, 1599, 1600, 1621, 1620, 2040, 2041, 2062, 2061
1464, 1600, 1601, 1622, 1621, 2041, 2042, 2063, 2062
1465, 1601, 1602, 1623, 1622, 2042, 2043, 2064, 2063
1466, 1602, 1603, 1624, 1623, 2043, 2044, 2065, 2064
1467, 1603, 1604, 1625, 1624, 2044, 2045, 2066, 2065
1468, 1604, 1605, 1626, 1625, 2045, 2046, 2067, 2066
1469, 1605, 1606, 1627, 1626, 2046, 2047, 2068, 2067
1470, 1606, 1607, 1628, 1627, 2047, 2048, 2069, 2068
1471, 1607, 1608, 1629, 1628, 2048, 2049, 2070, 2069
1472, 1608, 1609, 1630, 1629, 2049, 2050, 2071, 2070
1473, 1609, 1610, 1631, 1630, 2050, 2051, 2072, 2071
1474, 1610, 1611, 1632, 1631, 2051, 2052, 2073, 2072
1475, 1611, 1612, 1633, 1632, 2052, 2053, 2074, 2073
1476, 1612, 1613, 1634, 1633, 2053, 2054, 2075, 2074
1477, 1613, 1614, 1635, 1634, 2054, 2055, 2076, 2075
1478, 1614, 1615, 1636, 1635, 2055, 2056, 2077, 2076
1479, 1615, 1616, 1637, 1636, 2056, 2057, 2078, 2077
1480, 1616, 1617, 1638, 1637, 2057, 2058, 2079, 2078
1481, 1618, 1619, 1640, 1639, 2059, 2060, 2081, 2080
1482, 1619, 1620, 1641, 1640, 2060, 2061, 2082, 2081
1483, 1620, 1621, 1642, 1641, 2061, 2062, 2083, 2082
1484, 1621, 1622, 1643, 1642, 2062, 2063, 2084, 2083
1485, 1622, 1623, 1644, 1643, 2063, 2064, 2085, 2084
1486, 1623, 1624, 1645, 1644, 2064, 2065, 2086, 2085
1487, 1624, 1625, 1646, 1645, 2065, 2066, 2087, 2086
1488, 1625, 1626, 1647, 1646, 2066, 2067, 2088, 2087
1489, 1626, 1627, 1648, 1647, 2067, 2068, 2089, 2088
1490, 1627, 1628, 1649, 1648, 2068, 2069, 2090, 2089
1491, 1628, 1629, 1650, 1649, 2069, 2070, 2091, 2090
1492, 1629, 1630, 1651, 1650, 2070, 2071, 2092, 2091
1493, 1630, 1631, 1652, 1651, 2071, 2072, 2093, 2092
1494, 1631, 1632, 1653, 1652, 2072, 2073, 2094, 2093
1495, 1632, 1633, 1654, 1653, 2073, 2074, 2095, 2094
1496, 1633, 1634, 1655, 1654, 2074, 2075, 2096, 2095
1497, 1634, 1635, 1656, 1655, 2075, 2076, 2097, 2096
1498, 1635, 1636, 1657, 1656, 2076, 2077, 2098, 2097
1499, 1636, 1637, 1658, 1657, 2077, 2078, 2099, 2098
1500, 1637, 1638, 1659, 1658, 2078, 2079, 2100, 2099
1501, 1639, 1640, 1661, 1660, 2080, 2081, 2102, 2101
1502, 1640, 1641, 1662, 1661, 2081, 2082, 2103, 2102
1503, 1641, 1642, 1663, 1662, 2082, 2083, 2104, 2103
1504, 1642, 1643, 1664, 1663, 2083, 2084, 2105, 2104
1505, 1643, 1644, 1665, 1664, 2084, 2085, 2106, 2105
1506, 1644, 1645, 1666, 1665, 2085, 2086, 2107, 2106
1507, 1645, 1646, 1667, 1666, 2086, 2087, 2108, 2107
1508, 1646, 1647, 1668, 1667, 2087, 2088, 2109, 2108
1509, 1647, 1648, 1669, 1668, 2088, 2089, 2110, 2109
1510, 1648, 1649, 1670, 1669, 2089, 2090, 2111, 2110
1511, 1649, 1650, 1671, 1670, 2090, 2091, 2112, 2111
1512, 1650, 1651, 1672, 1671, 2091, 2092, 2113, 2112
1513, 1651, 1652, 1673, 1672, 2092, 2093, 2114, 2113
1514, 1652, 1653, 1674, 1673, 2093, 2094, 2115, 2114
1515, 1653, 1654, 1675, 1674, 2094, 2095, 2116, 2115
1516, 1654, 1655, 1676, 1675, 2095, 2096, 2117, 2116
1517, 1655, 1656, 1677, 1676, 2096, 2097, 2118, 2117
1518, 1656, 1657, 1678, 1677, 2097, 2098, 2119, 2118
1519, 1657, 1658, 1679, 1678, 2098, 2099, 2120, 2119
1520, 1658, 1659, 1680, 1679, 2099, 2100, 2121, 2120
1521, 1660, 1661, 1682, 1681, 2101, 2102, 2123, 2122
1522, 1661, 1662, 1683, 1682, 2102, 2103, 2124, 2123
1523, 1662, 1663, 1684, 1683, 2103, 2104, 2125, 2124
1524, 1663, 1664, 1685, 1684, 2104, 2105, 2126, 2125
1525, 1664, 1665, 1686, 1685, 2105, 2106, 2127, 2126
1526, 1665, 1666, 1687, 1686, 2106, 2107, 2128, 2127
1527, 1666, 1667, 1688, 1687, 2107, 2108, 2129, 2128
1528, 1667, 1668, 1689, 1688, 2108, 2109, 2130, 2129
1529, 1668, 1669, 1690, 1689, 2109, 2110, 2131, 2130
1530, 1669, 1670, 1691, 1690, 2110, 2111, 2132, 2131
1531, 1670, 1671, 1692, 1691, 2111, 2112, 2133, 2132
1532, 1671, 1672, 1693, 1692, 2112, 2113, 2134, 2133
1533, 1672, 1673, 1694, 1693, 2113, 2114, 2135, 2134
1534, 1673, 1674, 1695, 1694, 2114, 2115, 2136, 2135
1535, 1674, 1675, 1696, 1695, 2115, 2116, 2137, 2136
1536, 1675, 1676, 1697, 1696, 2116, 2117, 2138, 2137
1537, 1676, 1677, 1698, 1697, 2117, 2118, 2139, 2138
1538, 1677, 1678, 1699, 1698, 2118, 2119, 2140, 2139
1539, 1678, 1679, 1700, 1699, 2119, 2120, 2141, 2140
1540, 1679, 1680, 1701, 1700, 2120, 2121, 2142, 2141
1541, 1681, 1682, 1703, 1702, 2122, 2123, 2144, 2143
1542, 1682, 1683, 1704, 1703, 2123, 2124, 2145, 2144
1543, 1683, 1684, 1705, 1704, 2124, 2125, 2146, 2145
1544, 1684, 1685, 1706, 1705, 2125, 2126, 2147, 2146
1545, 1685, 1686, 1707, 1706, 2126, 2127, 2148, 2147
1546, 1686, 1687, 1708, 1707, 2127, 2128, 2149, 2148
1547, 1687, 1688, 1709, 1708, 2128, 2129, 2150, 2149
1548, 1688, 1689, 1710, 1709, 2129, 2130, 2151, 2150
1549, 1689, 1690, 1711, 1710, 2130, 2131, 2152, 2151
1550, 1690, 1691, 1712, 1711, 2131, 2132, 2153, 2152
1551, 1691, 1692, 1713, 1712, 2132, 2133, 2154, 2153
1552, 1692, 1693, 1714, 1713, 2133, 2134, 2155, 2154
1553, 1693, 1694, 1715, 1714, 2134, 2135, 2156, 2155
1554, 1694, 1695, 1716, 1715, 2135, 2136, 2157, 2156
1555, 1695, 1696, 1717, 1716, 2136, 2137, 2158, 2157
1556, 1696, 1697, 1718, 1717, 2137, 2138, 2159, 2158
1557, 1697, 1698, 1719, 1718, 2138, 2139, 2160, 2159
1558, 1698, 1699, 1720, 1719, 2139, 2140, 2161, 2160
1559, 1699, 1700, 1721, 1720, 2140, 2141, 2162, 2161
1560, 1700, 1701, 1722, 1721, 2141, 2142, 2163, 2162
1561, 1702, 1703, 1724, 1723, 2143, 2144, 2165, 2164
1562, 1703, 1704, 1725, 1724, 2144, 2145, 2166, 2165
1563, 1704, 1705, 1726, 1725, 2145, 2146, 2167, 2166
1564, 1705, 1706, 1727, 1726, 2146, 2147, 2168, 2167
1565, 1706, 1707, 1728, 1727, 2147, 2148, 2169, 2168
1566, 1707, 1708, 1729, 1728, 2148, 2149, 2170, 2169
1567, 1708, 1709, 1730, 1729, 2149, 2150, 2171, 2170
1568, 1709, 1710, 1731, 1730, 2150, 2151, 2172, 2171
1569, 1710, 1711, 1732, 1731, 2151, 2152, 2173, 2172
1570, 1711, 1712, 1733, 1732, 2152, 2153, 2174, 2173
1571, 1712, 1713, 1734, 1733, 2153, 2154, 2175, 2174
1572, 1713, 1714, 1735, 1734, 2154, 2155, 2176, 2175
1573, 1714, 1715, 1736, 1735, 2155, 2156, 2177, 2176
1574, 1715, 1716, 1737, 1736, 2156, 2157, 2178, 2177
1575, 1716, 1717, 1738, 1737, 2157, 2158, 2179, 2178
1576, 1717, 1718, 1739, 1738, 2158, 2159, 2180, 2179
1577, 1718, 1719, 1740, 1739, 2159, 2160, 2181, 2180
1578, 1719, 1720, 1741, 1740, 2160, 2161, 2182, 2181
1579, 1720, 1721, 1742, 1741, 2161, 2162, 2183, 2182
1580, 1721, 1722, 1743, 1742, 2162, 2163, 2184, 2183
1581, 1723, 1724, 1745, 1744, 2164, 2165, 2186, 2185
1582, 1724, 1725, 1746, 1745, 2165, 2166, 2187, 2186
1583, 1725, 1726, 1747, 1746, 2166, 2167, 2188, 2187
1584, 1726, 1727, 1748, 1747, 2167, 2168, 2189, 2188
1585, 1727, 1728, 1749, 1748, 2168, 2169, 2190, 2189
1586, 1728, 1729, 1750, 1749, 2169, 2170, 2191, 2190
1587, 1729, 1730, 1751, 1750, 2170, 2171, 2192, 2191
1588, 1730, 1731, 1752, 1751, 2171, 2172, 2193, 2192
1589, 1731, 1732, 1753, 1752, 2172, 2173, 2194, 2193
1590, 1732, 1733, 1754, 1753, 2173, 2174, 2195, 2194
1591, 1733, 1734, 1755, 1754, 2174, 2175, 2196, 2195
1592, 1734, 1735, 1756, 1755, 2175, 2176, 2197, 2196
1593, 1735, 1736, 1757, 1756, 2176, 2177, 2198, 2197
1594, 1736, 1737, 1758, 1757, 2177, 2178, 2199, 2198
1595, 1737, 1738, 1759, 1758, 2178, 2179, 2200, 2199
1596, 1738, 1739, 1760, 1759, 2179, 2180, 2201, 2200
1597, 1739, 1740, 1761, 1760, 2180, 2181, 2202, 2201
1598, 1740, 1741, 1762, 1761, 2181, 2182, 2203, 2202
1599, 1741, 1742, 1763, 1762, 2182, 2183, 2204, 2203
1600, 1742, 1743, 1764, 1763, 2183, 2184, 2205, 2204
*End Part
*Assembly, name=Assembly
*Instance, name=PLATE-1, part=PLATE
*End Instance
*End Assembly
