*Heading
** verification deck t18.inp
*Part, name=PLATE
*Node
1, 0, 0, 0
2, 1, 0, 0
3, 2, 0, 0
4, 3, 0, 0
5, 0, 1, 0
6, 1, 1, 0
7, 2, 1, 0
8, 3, 1, 0
9, 0, 2, 0
10, 1, 2, 0
11, 2, 2, 0
12, 3, 2, 0
13, 0, 3, 0
14, 1, 3, 0
15, 2, 3, 0
16, 3, 3, 0
17, 0, 0, 0.75
18, 1, 0, 0.75
19, 2, 0, 0.75
20, 3, 0, 0.75
21, 0, 1, 0.75
22, 1, 1, 0.75
23, 2, 1, 0.75
24, 3, 1, 0.75
25, 0, 2, 0.75
26, 1, 2, 0.75
27, 2, 2, 0.75
28, 3, 2, 0.75
29, 0, 3, 0.75
30, 1, 3, 0.75
31, 2, 3, 0.75
32, 3, 3, 0.75
33, 0, 0, 1.5
34, 1, 0, 1.5
35, 2, 0, 1.5
36, 3, 0, 1.5
37, 0, 1, 1.5
38, 1, 1, 1.5
39, 2, 1, 1.5
40, 3, 1, 1.5
41, 0, 2, 1.5
42, 1, 2, 1.5
43, 2, 2, 1.5
44, 3, 2, 1.5
45, 0, 3, 1.5
46, 1, 3, 1.5
47, 2, 3, 1.5
48, 3, 3, 1.5
*Element, type=C3D8R, elset=HOST
1, 1, 2, 6, 5, 17, 18, 22, 21
2, 2, 3, 7, 6, 18, 19, 23, 22
3, 3, 4, 8, 7, 19, 20, 24, 23
4, 5, 6, 10, 9, 21, 22, 26, 25
5, 6, 7, 11, 10, 22, 23, 27, 26
6, 7, 8, 12, 11, 23, 24, 28, 27
7, 9, 10, 14, 13, 25, 26, 30, 29
8, 10, 11, 15, 14, 26, 27, 31, 30
9, 11, 12, 16, 15, 27, 28, 32, 31
10, 17, 18, 22, 21, 33, 34, 38, 37
11, 18, 19, 23, 22, 34, 35, 39, 38
12, 19, 20, 24, 23, 35, 36, 40, 39
13, 21, 22, 26, 25, 37, 38, 42, 41
14, 22, 23, 27, 26, 38, 39, 43, 42
15, 23, 24, 28, 27, 39, 40, 44, 43
16, 25, 26, 30, 29, 41, 42, 46, 45
17, 26, 27, 31, 30, 42, 43, 47, 46
18, 27, 28, 32, 31, 43, 44, 48, 47
*End Part
*Assembly, name=Assembly
*Instance, name=PLATE-1, part=PLATE
*End Instance
*End Assembly
