*Part, name=PLATE
*Node
1, 2, 0, 0
2, 2.33333333333, 0, 0
3, 2.66666666667, 0, 0
4, 3, 0, 0
5, 1.84775906502, 0.76536686473, 0
6, 2.15571890919, 0.892928008852, 0
7, 2.46367875336, 1.02048915297, 0
8, 2.77163859753, 1.1480502971, 0
9, 1.41421356237, 1.41421356237, 0
10, 1.64991582277, 1.64991582277, 0
11, 1.88561808316, 1.88561808316, 0
12, 2.12132034356, 2.12132034356, 0
13, 0.76536686473, 1.84775906502, 0
14, 0.892928008852, 2.15571890919, 0
15, 1.02048915297, 2.46367875336, 0
16, 1.1480502971, 2.77163859753, 0
17, 1.22464679915e-16, 2, 0
18, 1.42875459901e-16, 2.33333333333, 0
19, 1.63286239886e-16, 2.66666666667, 0
20, 1.83697019872e-16, 3, 0
21, -0.76536686473, 1.84775906502, 0
22, -0.892928008852, 2.15571890919, 0
23, -1.02048915297, 2.46367875336, 0
24, -1.1480502971, 2.77163859753, 0
25, -1.41421356237, 1.41421356237, 0
26, -1.64991582277, 1.64991582277, 0
27, -1.88561808316, 1.88561808316, 0
28, -2.12132034356, 2.12132034356, 0
29, -1.84775906502, 0.76536686473, 0
30, -2.15571890919, 0.892928008852, 0
31, -2.46367875336, 1.02048915297, 0
32, -2.77163859753, 1.1480502971, 0
33, -2, 2.44929359829e-16, 0
34, -2.33333333333, 2.85750919801e-16, 0
35, -2.66666666667, 3.26572479773e-16, 0
36, -3, 3.67394039744e-16, 0
37, -1.84775906502, -0.76536686473, 0
38, -2.15571890919, -0.892928008852, 0
39, -2.46367875336, -1.02048915297, 0
40, -2.77163859753, -1.1480502971, 0
41, -1.41421356237, -1.41421356237, 0
42, -1.64991582277, -1.64991582277, 0
43, -1.88561808316, -1.88561808316, 0
44, -2.12132034356, -2.12132034356, 0
45, -0.76536686473, -1.84775906502, 0
46, -0.892928008852, -2.15571890919, 0
47, -1.02048915297, -2.46367875336, 0
48, -1.1480502971, -2.77163859753, 0
49, -3.67394039744e-16, -2, 0
50, -4.28626379702e-16, -2.33333333333, 0
51, -4.89858719659e-16, -2.66666666667, 0
52, -5.51091059616e-16, -3, 0
53, 0.76536686473, -1.84775906502, 0
54, 0.892928008852, -2.15571890919, 0
55, 1.02048915297, -2.46367875336, 0
56, 1.1480502971, -2.77163859753, 0
57, 1.41421356237, -1.41421356237, 0
58, 1.64991582277, -1.64991582277, 0
59, 1.88561808316, -1.88561808316, 0
60, 2.12132034356, -2.12132034356, 0
61, 1.84775906502, -0.76536686473, 0
62, 2.15571890919, -0.892928008852, 0
63, 2.46367875336, -1.02048915297, 0
64, 2.77163859753, -1.1480502971, 0
65, 2, 0, 1.25
66, 2.33333333333, 0, 1.25
67, 2.66666666667, 0, 1.25
68, 3, 0, 1.25
69, 1.84775906502, 0.76536686473, 1.25
70, 2.15571890919, 0.892928008852, 1.25
71, 2.46367875336, 1.02048915297, 1.25
72, 2.77163859753, 1.1480502971, 1.25
73, 1.41421356237, 1.41421356237, 1.25
74, 1.64991582277, 1.64991582277, 1.25
75, 1.88561808316, 1.88561808316, 1.25
76, 2.12132034356, 2.12132034356, 1.25
77, 0.76536686473, 1.84775906502, 1.25
78, 0.892928008852, 2.15571890919, 1.25
79, 1.02048915297, 2.46367875336, 1.25
80, 1.1480502971, 2.77163859753, 1.25
81, 1.22464679915e-16, 2, 1.25
82, 1.42875459901e-16, 2.33333333333, 1.25
83, 1.63286239886e-16, 2.66666666667, 1.25
84, 1.83697019872e-16, 3, 1.25
85, -0.76536686473, 1.84775906502, 1.25
86, -0.892928008852, 2.15571890919, 1.25
87, -1.02048915297, 2.46367875336, 1.25
88, -1.1480502971, 2.77163859753, 1.25
89, -1.41421356237, 1.41421356237, 1.25
90, -1.64991582277, 1.64991582277, 1.25
91, -1.88561808316, 1.88561808316, 1.25
92, -2.12132034356, 2.12132034356, 1.25
93, -1.84775906502, 0.76536686473, 1.25
94, -2.15571890919, 0.892928008852, 1.25
95, -2.46367875336, 1.02048915297, 1.25
96, -2.77163859753, 1.1480502971, 1.25
97, -2, 2.44929359829e-16, 1.25
98, -2.33333333333, 2.85750919801e-16, 1.25
99, -2.66666666667, 3.26572479773e-16, 1.25
100, -3, 3.67394039744e-16, 1.25
101, -1.84775906502, -0.76536686473, 1.25
102, -2.15571890919, -0.892928008852, 1.25
103, -2.46367875336, -1.02048915297, 1.25
104, -2.77163859753, -1.1480502971, 1.25
105, -1.41421356237, -1.41421356237, 1.25
106, -1.64991582277, -1.64991582277, 1.25
107, -1.88561808316, -1.88561808316, 1.25
108, -2.12132034356, -2.12132034356, 1.25
109, -0.76536686473, -1.84775906502, 1.25
110, -0.892928008852, -2.15571890919, 1.25
111, -1.02048915297, -2.46367875336, 1.25
112, -1.1480502971, -2.77163859753, 1.25
113, -3.67394039744e-16, -2, 1.25
114, -4.28626379702e-16, -2.33333333333, 1.25
115, -4.89858719659e-16, -2.66666666667, 1.25
116, -5.51091059616e-16, -3, 1.25
117, 0.76536686473, -1.84775906502, 1.25
118, 0.892928008852, -2.15571890919, 1.25
119, 1.02048915297, -2.46367875336, 1.25
120, 1.1480502971, -2.77163859753, 1.25
121, 1.41421356237, -1.41421356237, 1.25
122, 1.64991582277, -1.64991582277, 1.25
123, 1.88561808316, -1.88561808316, 1.25
124, 2.12132034356, -2.12132034356, 1.25
125, 1.84775906502, -0.76536686473, 1.25
126, 2.15571890919, -0.892928008852, 1.25
127, 2.46367875336, -1.02048915297, 1.25
128, 2.77163859753, -1.1480502971, 1.25
129, 2, 0, 2.5
130, 2.33333333333, 0, 2.5
131, 2.66666666667, 0, 2.5
132, 3, 0, 2.5
133, 1.84775906502, 0.76536686473, 2.5
134, 2.15571890919, 0.892928008852, 2.5
135, 2.46367875336, 1.02048915297, 2.5
136, 2.77163859753, 1.1480502971, 2.5
137, 1.41421356237, 1.41421356237, 2.5
138, 1.64991582277, 1.64991582277, 2.5
139, 1.88561808316, 1.88561808316, 2.5
140, 2.12132034356, 2.12132034356, 2.5
141, 0.76536686473, 1.84775906502, 2.5
142, 0.892928008852, 2.15571890919, 2.5
143, 1.02048915297, 2.46367875336, 2.5
144, 1.1480502971, 2.77163859753, 2.5
145, 1.22464679915e-16, 2, 2.5
146, 1.42875459901e-16, 2.33333333333, 2.5
147, 1.63286239886e-16, 2.66666666667, 2.5
148, 1.83697019872e-16, 3, 2.5
149, -0.76536686473, 1.84775906502, 2.5
150, -0.892928008852, 2.15571890919, 2.5
151, -1.02048915297, 2.46367875336, 2.5
152, -1.1480502971, 2.77163859753, 2.5
153, -1.41421356237, 1.41421356237, 2.5
154, -1.64991582277, 1.64991582277, 2.5
155, -1.88561808316, 1.88561808316, 2.5
156, -2.12132034356, 2.12132034356, 2.5
157, -1.84775906502, 0.76536686473, 2.5
158, -2.15571890919, 0.892928008852, 2.5
159, -2.46367875336, 1.02048915297, 2.5
160, -2.77163859753, 1.1480502971, 2.5
161, -2, 2.44929359829e-16, 2.5
162, -2.33333333333, 2.85750919801e-16, 2.5
163, -2.66666666667, 3.26572479773e-16, 2.5
164, -3, 3.67394039744e-16, 2.5
165, -1.84775906502, -0.76536686473, 2.5
166, -2.15571890919, -0.892928008852, 2.5
167, -2.46367875336, -1.02048915297, 2.5
168, -2.77163859753, -1.1480502971, 2.5
169, -1.41421356237, -1.41421356237, 2.5
170, -1.64991582277, -1.64991582277, 2.5
171, -1.88561808316, -1.88561808316, 2.5
172, -2.12132034356, -2.12132034356, 2.5
173, -0.76536686473, -1.84775906502, 2.5
174, -0.892928008852, -2.15571890919, 2.5
175, -1.02048915297, -2.46367875336, 2.5
176, -1.1480502971, -2.77163859753, 2.5
177, -3.67394039744e-16, -2, 2.5
178, -4.28626379702e-16, -2.33333333333, 2.5
179, -4.89858719659e-16, -2.66666666667, 2.5
180, -5.51091059616e-16, -3, 2.5
181, 0.76536686473, -1.84775906502, 2.5
182, 0.892928008852, -2.15571890919, 2.5
183, 1.02048915297, -2.46367875336, 2.5
184, 1.1480502971, -2.77163859753, 2.5
185, 1.41421356237, -1.41421356237, 2.5
186, 1.64991582277, -1.64991582277, 2.5
187, 1.88561808316, -1.88561808316, 2.5
188, 2.12132034356, -2.12132034356, 2.5
189, 1.84775906502, -0.76536686473, 2.5
190, 2.15571890919, -0.892928008852, 2.5
191, 2.46367875336, -1.02048915297, 2.5
192, 2.77163859753, -1.1480502971, 2.5
193, 2, 0, 3.75
194, 2.33333333333, 0, 3.75
195, 2.66666666667, 0, 3.75
196, 3, 0, 3.75
197, 1.84775906502, 0.76536686473, 3.75
198, 2.15571890919, 0.892928008852, 3.75
199, 2.46367875336, 1.02048915297, 3.75
200, 2.77163859753, 1.1480502971, 3.75
201, 1.41421356237, 1.41421356237, 3.75
202, 1.64991582277, 1.64991582277, 3.75
203, 1.88561808316, 1.88561808316, 3.75
204, 2.12132034356, 2.12132034356, 3.75
205, 0.76536686473, 1.84775906502, 3.75
206, 0.892928008852, 2.15571890919, 3.75
207, 1.02048915297, 2.46367875336, 3.75
208, 1.1480502971, 2.77163859753, 3.75
209, 1.22464679915e-16, 2, 3.75
210, 1.42875459901e-16, 2.33333333333, 3.75
211, 1.63286239886e-16, 2.66666666667, 3.75
212, 1.83697019872e-16, 3, 3.75
213, -0.76536686473, 1.84775906502, 3.75
214, -0.892928008852, 2.15571890919, 3.75
215, -1.02048915297, 2.46367875336, 3.75
216, -1.1480502971, 2.77163859753, 3.75
217, -1.41421356237, 1.41421356237, 3.75
218, -1.64991582277, 1.64991582277, 3.75
219, -1.88561808316, 1.88561808316, 3.75
220, -2.12132034356, 2.12132034356, 3.75
221, -1.84775906502, 0.76536686473, 3.75
222, -2.15571890919, 0.892928008852, 3.75
223, -2.46367875336, 1.02048915297, 3.75
224, -2.77163859753, 1.1480502971, 3.75
225, -2, 2.44929359829e-16, 3.75
226, -2.33333333333, 2.85750919801e-16, 3.75
227, -2.66666666667, 3.26572479773e-16, 3.75
228, -3, 3.67394039744e-16, 3.75
229, -1.84775906502, -0.76536686473, 3.75
230, -2.15571890919, -0.892928008852, 3.75
231, -2.46367875336, -1.02048915297, 3.75
232, -2.77163859753, -1.1480502971, 3.75
233, -1.41421356237, -1.41421356237, 3.75
234, -1.64991582277, -1.64991582277, 3.75
235, -1.88561808316, -1.88561808316, 3.75
236, -2.12132034356, -2.12132034356, 3.75
237, -0.76536686473, -1.84775906502, 3.75
238, -0.892928008852, -2.15571890919, 3.75
239, -1.02048915297, -2.46367875336, 3.75
240, -1.1480502971, -2.77163859753, 3.75
241, -3.67394039744e-16, -2, 3.75
242, -4.28626379702e-16, -2.33333333333, 3.75
243, -4.89858719659e-16, -2.66666666667, 3.75
244, -5.51091059616e-16, -3, 3.75
245, 0.76536686473, -1.84775906502, 3.75
246, 0.892928008852, -2.15571890919, 3.75
247, 1.02048915297, -2.46367875336, 3.75
248, 1.1480502971, -2.77163859753, 3.75
249, 1.41421356237, -1.41421356237, 3.75
250, 1.64991582277, -1.64991582277, 3.75
251, 1.88561808316, -1.88561808316, 3.75
252, 2.12132034356, -2.12132034356, 3.75
253, 1.84775906502, -0.76536686473, 3.75
254, 2.15571890919, -0.892928008852, 3.75
255, 2.46367875336, -1.02048915297, 3.75
256, 2.77163859753, -1.1480502971, 3.75
257, 2, 0, 5
258, 2.33333333333, 0, 5
259, 2.66666666667, 0, 5
260, 3, 0, 5
261, 1.84775906502, 0.76536686473, 5
262, 2.15571890919, 0.892928008852, 5
263, 2.46367875336, 1.02048915297, 5
264, 2.77163859753, 1.1480502971, 5
265, 1.41421356237, 1.41421356237, 5
266, 1.64991582277, 1.64991582277, 5
267, 1.88561808316, 1.88561808316, 5
268, 2.12132034356, 2.12132034356, 5
269, 0.76536686473, 1.84775906502, 5
270, 0.892928008852, 2.15571890919, 5
271, 1.02048915297, 2.46367875336, 5
272, 1.1480502971, 2.77163859753, 5
273, 1.22464679915e-16, 2, 5
274, 1.42875459901e-16, 2.33333333333, 5
275, 1.63286239886e-16, 2.66666666667, 5
276, 1.83697019872e-16, 3, 5
277, -0.76536686473, 1.84775906502, 5
278, -0.892928008852, 2.15571890919, 5
279, -1.02048915297, 2.46367875336, 5
280, -1.1480502971, 2.77163859753, 5
281, -1.41421356237, 1.41421356237, 5
282, -1.64991582277, 1.64991582277, 5
283, -1.88561808316, 1.88561808316, 5
284, -2.12132034356, 2.12132034356, 5
285, -1.84775906502, 0.76536686473, 5
286, -2.15571890919, 0.892928008852, 5
287, -2.46367875336, 1.02048915297, 5
288, -2.77163859753, 1.1480502971, 5
289, -2, 2.44929359829e-16, 5
290, -2.33333333333, 2.85750919801e-16, 5
291, -2.66666666667, 3.26572479773e-16, 5
292, -3, 3.67394039744e-16, 5
293, -1.84775906502, -0.76536686473, 5
294, -2.15571890919, -0.892928008852, 5
295, -2.46367875336, -1.02048915297, 5
296, -2.77163859753, -1.1480502971, 5
297, -1.41421356237, -1.41421356237, 5
298, -1.64991582277, -1.64991582277, 5
299, -1.88561808316, -1.88561808316, 5
300, -2.12132034356, -2.12132034356, 5
301, -0.76536686473, -1.84775906502, 5
302, -0.892928008852, -2.15571890919, 5
303, -1.02048915297, -2.46367875336, 5
304, -1.1480502971, -2.77163859753, 5
305, -3.67394039744e-16, -2, 5
306, -4.28626379702e-16, -2.33333333333, 5
307, -4.89858719659e-16, -2.66666666667, 5
308, -5.51091059616e-16, -3, 5
309, 0.76536686473, -1.84775906502, 5
310, 0.892928008852, -2.15571890919, 5
311, 1.02048915297, -2.46367875336, 5
312, 1.1480502971, -2.77163859753, 5
313, 1.41421356237, -1.41421356237, 5
314, 1.64991582277, -1.64991582277, 5
315, 1.88561808316, -1.88561808316, 5
316, 2.12132034356, -2.12132034356, 5
317, 1.84775906502, -0.76536686473, 5
318, 2.15571890919, -0.892928008852, 5
319, 2.46367875336, -1.02048915297, 5
320, 2.77163859753, -1.1480502971, 5
*Element, type=C3D8R, elset=HOST
1, 1, 2, 6, 5, 65, 66, 70, 69
2, 2, 3, 7, 6, 66, 67, 71, 70
3, 3, 4, 8, 7, 67, 68, 72, 71
4, 5, 6, 10, 9, 69, 70, 74, 73
5, 6, 7, 11, 10, 70, 71, 75, 74
6, 7, 8, 12, 11, 71, 72, 76, 75
7, 9, 10, 14, 13, 73, 74, 78, 77
8, 10, 11, 15, 14, 74, 75, 79, 78
9, 11, 12, 16, 15, 75, 76, 80, 79
10, 13, 14, 18, 17, 77, 78, 82, 81
11, 14, 15, 19, 18, 78, 79, 83, 82
12, 15, 16, 20, 19, 79, 80, 84, 83
13, 17, 18, 22, 21, 81, 82, 86, 85
14, 18, 19, 23, 22, 82, 83, 87, 86
15, 19, 20, 24, 23, 83, 84, 88, 87
16, 21, 22, 26, 25, 85, 86, 90, 89
17, 22, 23, 27, 26, 86, 87, 91, 90
18, 23, 24, 28, 27, 87, 88, 92, 91
19, 25, 26, 30, 29, 89, 90, 94, 93
20, 26, 27, 31, 30, 90, 91, 95, 94
21, 27, 28, 32, 31, 91, 92, 96, 95
22, 29, 30, 34, 33, 93, 94, 98, 97
23, 30, 31, 35, 34, 94, 95, 99, 98
24, 31, 32, 36, 35, 95, 96, 100, 99
25, 33, 34, 38, 37, 97, 98, 102, 101
26, 34, 35, 39, 38, 98, 99, 103, 102
27, 35, 36, 40, 39, 99, 100, 104, 103
28, 37, 38, 42, 41, 101, 102, 106, 105
29, 38, 39, 43, 42, 102, 103, 107, 106
30, 39, 40, 44, 43, 103, 104, 108, 107
31, 41, 42, 46, 45, 105, 106, 110, 109
32, 42, 43, 47, 46, 106, 107, 111, 110
33, 43, 44, 48, 47, 107, 108, 112, 111
34, 45, 46, 50, 49, 109, 110, 114, 113
35, 46, 47, 51, 50, 110, 111, 115, 114
36, 47, 48, 52, 51, 111, 112, 116, 115
37, 49, 50, 54, 53, 113, 114, 118, 117
38, 50, 51, 55, 54, 114, 115, 119, 118
39, 51, 52, 56, 55, 115, 116, 120, 119
40, 53, 54, 58, 57, 117, 118, 122, 121
41, 54, 55, 59, 58, 118, 119, 123, 122
42, 55, 56, 60, 59, 119, 120, 124, 123
43, 57, 58, 62, 61, 121, 122, 126, 125
44, 58, 59, 63, 62, 122, 123, 127, 126
45, 59, 60, 64, 63, 123, 124, 128, 127
46, 61, 62, 2, 1, 125, 126, 66, 65
47, 62, 63, 3, 2, 126, 127, 67, 66
48, 63, 64, 4, 3, 127, 128, 68, 67
49, 65, 66, 70, 69, 129, 130, 134, 133
50, 66, 67, 71, 70, 130, 131, 135, 134
51, 67, 68, 72, 71, 131, 132, 136, 135
52, 69, 70, 74, 73, 133, 134, 138, 137
53, 70, 71, 75, 74, 134, 135, 139, 138
54, 71, 72, 76, 75, 135, 136, 140, 139
55, 73, 74, 78, 77, 137, 138, 142, 141
56, 74, 75, 79, 78, 138, 139, 143, 142
57, 75, 76, 80, 79, 139, 140, 144, 143
58, 77, 78, 82, 81, 141, 142, 146, 145
59, 78, 79, 83, 82, 142, 143, 147, 146
60, 79, 80, 84, 83, 143, 144, 148, 147
61, 81, 82, 86, 85, 145, 146, 150, 149
62, 82, 83, 87, 86, 146, 147, 151, 150
63, 83, 84, 88, 87, 147, 148, 152, 151
64, 85, 86, 90, 89, 149, 150, 154, 153
65, 86, 87, 91, 90, 150, 151, 155, 154
66, 87, 88, 92, 91, 151, 152, 156, 155
67, 89, 90, 94, 93, 153, 154, 158, 157
68, 90, 91, 95, 94, 154, 155, 159, 158
69, 91, 92, 96, 95, 155, 156, 160, 159
70, 93, 94, 98, 97, 157, 158, 162, 161
71, 94, 95, 99, 98, 158, 159, 163, 162
72, 95, 96, 100, 99, 159, 160, 164, 163
73, 97, 98, 102, 101, 161, 162, 166, 165
74, 98, 99, 103, 102, 162, 163, 167, 166
75, 99, 100, 104, 103, 163, 164, 168, 167
76, 101, 102, 106, 105, 165, 166, 170, 169
77, 102, 103, 107, 106, 166, 167, 171, 170
78, 103, 104, 108, 107, 167, 168, 172, 171
79, 105, 106, 110, 109, 169, 170, 174, 173
80, 106, 107, 111, 110, 170, 171, 175, 174
81, 107, 108, 112, 111, 171, 172, 176, 175
82, 109, 110, 114, 113, 173, 174, 178, 177
83, 110, 111, 115, 114, 174, 175, 179, 178
84, 111, 112, 116, 115, 175, 176, 180, 179
85, 113, 114, 118, 117, 177, 178, 182, 181
86, 114, 115, 119, 118, 178, 179, 183, 182
87, 115, 116, 120, 119, 179, 180, 184, 183
88, 117, 118, 122, 121, 181, 182, 186, 185
89, 118, 119, 123, 122, 182, 183, 187, 186
90, 119, 120, 124, 123, 183, 184, 188, 187
91, 121, 122, 126, 125, 185, 186, 190, 189
92, 122, 123, 127, 126, 186, 187, 191, 190
93, 123, 124, 128, 127, 187, 188, 192, 191
94, 125, 126, 66, 65, 189, 190, 130, 129
95, 126, 127, 67, 66, 190, 191, 131, 130
96, 127, 128, 68, 67, 191, 192, 132, 131
97, 129, 130, 134, 133, 193, 194, 198, 197
98, 130, 131, 135, 134, 194, 195, 199, 198
99, 131, 132, 136, 135, 195, 196, 200, 199
100, 133, 134, 138, 137, 197, 198, 202, 201
101, 134, 135, 139, 138, 198, 199, 203, 202
102, 135, 136, 140, 139, 199, 200, 204, 203
103, 137, 138, 142, 141, 201, 202, 206, 205
104, 138, 139, 143, 142, 202, 203, 207, 206
105, 139, 140, 144, 143, 203, 204, 208, 207
106, 141, 142, 146, 145, 205, 206, 210, 209
107, 142, 143, 147, 146, 206, 207, 211, 210
108, 143, 144, 148, 147, 207, 208, 212, 211
109, 145, 146, 150, 149, 209, 210, 214, 213
110, 146, 147, 151, 150, 210, 211, 215, 214
111, 147, 148, 152, 151, 211, 212, 216, 215
112, 149, 150, 154, 153, 213, 214, 218, 217
113, 150, 151, 155, 154, 214, 215, 219, 218
114, 151, 152, 156, 155, 215, 216, 220, 219
115, 153, 154, 158, 157, 217, 218, 222, 221
116, 154, 155, 159, 158, 218, 219, 223, 222
117, 155, 156, 160, 159, 219, 220, 224, 223
118, 157, 158, 162, 161, 221, 222, 226, 225
119, 158, 159, 163, 162, 222, 223, 227, 226
120, 159, 160, 164, 163, 223, 224, 228, 227
121, 161, 162, 166, 165, 225, 226, 230, 229
122, 162, 163, 167, 166, 226, 227, 231, 230
123, 163, 164, 168, 167, 227, 228, 232, 231
124, 165, 166, 170, 169, 229, 230, 234, 233
125, 166, 167, 171, 170, 230, 231, 235, 234
126, 167, 168, 172, 171, 231, 232, 236, 235
127, 169, 170, 174, 173, 233, 234, 238, 237
128, 170, 171, 175, 174, 234, 235, 239, 238
129, 171, 172, 176, 175, 235, 236, 240, 239
130, 173, 174, 178, 177, 237, 238, 242, 241
131, 174, 175, 179, 178, 238, 239, 243, 242
132, 175, 176, 180, 179, 239, 240, 244, 243
133, 177, 178, 182, 181, 241, 242, 246, 245
134, 178, 179, 183, 182, 242, 243, 247, 246
135, 179, 180, 184, 183, 243, 244, 248, 247
136, 181, 182, 186, 185, 245, 246, 250, 249
137, 182, 183, 187, 186, 246, 247, 251, 250
138, 183, 184, 188, 187, 247, 248, 252, 251
139, 185, 186, 190, 189, 249, 250, 254, 253
140, 186, 187, 191, 190, 250, 251, 255, 254
141, 187, 188, 192, 191, 251, 252, 256, 255
142, 189, 190, 130, 129, 253, 254, 194, 193
143, 190, 191, 131, 130, 254, 255, 195, 194
144, 191, 192, 132, 131, 255, 256, 196, 195
145, 193, 194, 198, 197, 257, 258, 262, 261
146, 194, 195, 199, 198, 258, 259, 263, 262
147, 195, 196, 200, 199, 259, 260, 264, 263
148, 197, 198, 202, 201, 261, 262, 266, 265
149, 198, 199, 203, 202, 262, 263, 267, 266
150, 199, 200, 204, 203, 263, 264, 268, 267
151, 201, 202, 206, 205, 265, 266, 270, 269
152, 202, 203, 207, 206, 266, 267, 271, 270
153, 203, 204, 208, 207, 267, 268, 272, 271
154, 205, 206, 210, 209, 269, 270, 274, 273
155, 206, 207, 211, 210, 270, 271, 275, 274
156, 207, 208, 212, 211, 271, 272, 276, 275
157, 209, 210, 214, 213, 273, 274, 278, 277
158, 210, 211, 215, 214, 274, 275, 279, 278
159, 211, 212, 216, 215, 275, 276, 280, 279
160, 213, 214, 218, 217, 277, 278, 282, 281
161, 214, 215, 219, 218, 278, 279, 283, 282
162, 215, 216, 220, 219, 279, 280, 284, 283
163, 217, 218, 222, 221, 281, 282, 286, 285
164, 218, 219, 223, 222, 282, 283, 287, 286
165, 219, 220, 224, 223, 283, 284, 288, 287
166, 221, 222, 226, 225, 285, 286, 290, 289
167, 222, 223, 227, 226, 286, 287, 291, 290
168, 223, 224, 228, 227, 287, 288, 292, 291
169, 225, 226, 230, 229, 289, 290, 294, 293
170, 226, 227, 231, 230, 290, 291, 295, 294
171, 227, 228, 232, 231, 291, 292, 296, 295
172, 229, 230, 234, 233, 293, 294, 298, 297
173, 230, 231, 235, 234, 294, 295, 299, 298
174, 231, 232, 236, 235, 295, 296, 300, 299
175, 233, 234, 238, 237, 297, 298, 302, 301
176, 234, 235, 239, 238, 298, 299, 303, 302
177, 235, 236, 240, 239, 299, 300, 304, 303
178, 237, 238, 242, 241, 301, 302, 306, 305
179, 238, 239, 243, 242, 302, 303, 307, 306
180, 239, 240, 244, 243, 303, 304, 308, 307
181, 241, 242, 246, 245, 305, 306, 310, 309
182, 242, 243, 247, 246, 306, 307, 311, 310
183, 243, 244, 248, 247, 307, 308, 312, 311
184, 245, 246, 250, 249, 309, 310, 314, 313
185, 246, 247, 251, 250, 310, 311, 315, 314
186, 247, 248, 252, 251, 311, 312, 316, 315
187, 249, 250, 254, 253, 313, 314, 318, 317
188, 250, 251, 255, 254, 314, 315, 319, 318
189, 251, 252, 256, 255, 315, 316, 320, 319
190, 253, 254, 194, 193, 317, 318, 258, 257
191, 254, 255, 195, 194, 318, 319, 259, 258
192, 255, 256, 196, 195, 319, 320, 260, 259
*Solid Section, elset=HOST, material=MATRIX
,
*End Part
*Assembly, name=Assembly
*Instance, name=PLATE-1, part=PLATE
*End Instance
*End Assembly
