*Part, name=PLATE
*Node
1, 0.778836684617, 0, 1.84212198801
2, 0.856720353079, 0, 2.02633418681
3, 0.934604021541, 0, 2.21054638561
4, 1.42108015537, 0, 1.40731346615
5, 1.56318817091, 0, 1.54804481277
6, 1.70529618644, 0, 1.68877615938
7, 1.8496162184, 0, 0.760867823364
8, 2.03457784024, 0, 0.836954605701
9, 2.21953946208, 0, 0.913041388037
10, 2, 0, 1.22464679915e-16
11, 2.2, 0, 1.34711147906e-16
12, 2.4, 0, 1.46957615898e-16
13, 1.8496162184, 0, -0.760867823364
14, 2.03457784024, 0, -0.836954605701
15, 2.21953946208, 0, -0.913041388037
16, 1.42108015537, 0, -1.40731346615
17, 1.56318817091, 0, -1.54804481277
18, 1.70529618644, 0, -1.68877615938
19, 0.778836684617, 0, -1.84212198801
20, 0.856720353079, 0, -2.02633418681
21, 0.934604021541, 0, -2.21054638561
22, 0.674492354278, 0.389418342309, 1.84212198801
23, 0.741941589706, 0.42836017654, 2.02633418681
24, 0.809390825133, 0.46730201077, 2.21054638561
25, 1.23069151536, 0.710540077685, 1.40731346615
26, 1.3537606669, 0.781594085453, 1.54804481277
27, 1.47682981844, 0.852648093222, 1.68877615938
28, 1.60181463239, 0.9248081092, 0.760867823364
29, 1.76199609562, 1.01728892012, 0.836954605701
30, 1.92217755886, 1.10976973104, 0.913041388037
31, 1.73205080757, 1, 1.22464679915e-16
32, 1.90525588833, 1.1, 1.34711147906e-16
33, 2.07846096908, 1.2, 1.46957615898e-16
34, 1.60181463239, 0.9248081092, -0.760867823364
35, 1.76199609562, 1.01728892012, -0.836954605701
36, 1.92217755886, 1.10976973104, -0.913041388037
37, 1.23069151536, 0.710540077685, -1.40731346615
38, 1.3537606669, 0.781594085453, -1.54804481277
39, 1.47682981844, 0.852648093222, -1.68877615938
40, 0.674492354278, 0.389418342309, -1.84212198801
41, 0.741941589706, 0.42836017654, -2.02633418681
42, 0.809390825133, 0.46730201077, -2.21054638561
43, 0.389418342309, 0.674492354278, 1.84212198801
44, 0.42836017654, 0.741941589706, 2.02633418681
45, 0.46730201077, 0.809390825133, 2.21054638561
46, 0.710540077685, 1.23069151536, 1.40731346615
47, 0.781594085453, 1.3537606669, 1.54804481277
48, 0.852648093222, 1.47682981844, 1.68877615938
49, 0.9248081092, 1.60181463239, 0.760867823364
50, 1.01728892012, 1.76199609562, 0.836954605701
51, 1.10976973104, 1.92217755886, 0.913041388037
52, 1, 1.73205080757, 1.22464679915e-16
53, 1.1, 1.90525588833, 1.34711147906e-16
54, 1.2, 2.07846096908, 1.46957615898e-16
55, 0.9248081092, 1.60181463239, -0.760867823364
56, 1.01728892012, 1.76199609562, -0.836954605701
57, 1.10976973104, 1.92217755886, -0.913041388037
58, 0.710540077685, 1.23069151536, -1.40731346615
59, 0.781594085453, 1.3537606669, -1.54804481277
60, 0.852648093222, 1.47682981844, -1.68877615938
61, 0.389418342309, 0.674492354278, -1.84212198801
62, 0.42836017654, 0.741941589706, -2.02633418681
63, 0.46730201077, 0.809390825133, -2.21054638561
64, 4.76899926438e-17, 0.778836684617, 1.84212198801
65, 5.24589919081e-17, 0.856720353079, 2.02633418681
66, 5.72279911725e-17, 0.934604021541, 2.21054638561
67, 8.70160631802e-17, 1.42108015537, 1.40731346615
68, 9.57176694983e-17, 1.56318817091, 1.54804481277
69, 1.04419275816e-16, 1.70529618644, 1.68877615938
70, 1.13256329076e-16, 1.8496162184, 0.760867823364
71, 1.24581961983e-16, 2.03457784024, 0.836954605701
72, 1.35907594891e-16, 2.21953946208, 0.913041388037
73, 1.22464679915e-16, 2, 1.22464679915e-16
74, 1.34711147906e-16, 2.2, 1.34711147906e-16
75, 1.46957615898e-16, 2.4, 1.46957615898e-16
76, 1.13256329076e-16, 1.8496162184, -0.760867823364
77, 1.24581961983e-16, 2.03457784024, -0.836954605701
78, 1.35907594891e-16, 2.21953946208, -0.913041388037
79, 8.70160631802e-17, 1.42108015537, -1.40731346615
80, 9.57176694983e-17, 1.56318817091, -1.54804481277
81, 1.04419275816e-16, 1.70529618644, -1.68877615938
82, 4.76899926438e-17, 0.778836684617, -1.84212198801
83, 5.24589919081e-17, 0.856720353079, -2.02633418681
84, 5.72279911725e-17, 0.934604021541, -2.21054638561
85, -0.389418342309, 0.674492354278, 1.84212198801
86, -0.42836017654, 0.741941589706, 2.02633418681
87, -0.46730201077, 0.809390825133, 2.21054638561
88, -0.710540077685, 1.23069151536, 1.40731346615
89, -0.781594085453, 1.3537606669, 1.54804481277
90, -0.852648093222, 1.47682981844, 1.68877615938
91, -0.9248081092, 1.60181463239, 0.760867823364
92, -1.01728892012, 1.76199609562, 0.836954605701
93, -1.10976973104, 1.92217755886, 0.913041388037
94, -1, 1.73205080757, 1.22464679915e-16
95, -1.1, 1.90525588833, 1.34711147906e-16
96, -1.2, 2.07846096908, 1.46957615898e-16
97, -0.9248081092, 1.60181463239, -0.760867823364
98, -1.01728892012, 1.76199609562, -0.836954605701
99, -1.10976973104, 1.92217755886, -0.913041388037
100, -0.710540077685, 1.23069151536, -1.40731346615
101, -0.781594085453, 1.3537606669, -1.54804481277
102, -0.852648093222, 1.47682981844, -1.68877615938
103, -0.389418342309, 0.674492354278, -1.84212198801
104, -0.42836017654, 0.741941589706, -2.02633418681
105, -0.46730201077, 0.809390825133, -2.21054638561
106, -0.674492354278, 0.389418342309, 1.84212198801
107, -0.741941589706, 0.42836017654, 2.02633418681
108, -0.809390825133, 0.46730201077, 2.21054638561
109, -1.23069151536, 0.710540077685, 1.40731346615
110, -1.3537606669, 0.781594085453, 1.54804481277
111, -1.47682981844, 0.852648093222, 1.68877615938
112, -1.60181463239, 0.9248081092, 0.760867823364
113, -1.76199609562, 1.01728892012, 0.836954605701
114, -1.92217755886, 1.10976973104, 0.913041388037
115, -1.73205080757, 1, 1.22464679915e-16
116, -1.90525588833, 1.1, 1.34711147906e-16
117, -2.07846096908, 1.2, 1.46957615898e-16
118, -1.60181463239, 0.9248081092, -0.760867823364
119, -1.76199609562, 1.01728892012, -0.836954605701
120, -1.92217755886, 1.10976973104, -0.913041388037
121, -1.23069151536, 0.710540077685, -1.40731346615
122, -1.3537606669, 0.781594085453, -1.54804481277
123, -1.47682981844, 0.852648093222, -1.68877615938
124, -0.674492354278, 0.389418342309, -1.84212198801
125, -0.741941589706, 0.42836017654, -2.02633418681
126, -0.809390825133, 0.46730201077, -2.21054638561
127, -0.778836684617, 9.53799852875e-17, 1.84212198801
128, -0.856720353079, 1.04917983816e-16, 2.02633418681
129, -0.934604021541, 1.14455982345e-16, 2.21054638561
130, -1.42108015537, 1.7403212636e-16, 1.40731346615
131, -1.56318817091, 1.91435338997e-16, 1.54804481277
132, -1.70529618644, 2.08838551633e-16, 1.68877615938
133, -1.8496162184, 2.26512658151e-16, 0.760867823364
134, -2.03457784024, 2.49163923967e-16, 0.836954605701
135, -2.21953946208, 2.71815189782e-16, 0.913041388037
136, -2, 2.44929359829e-16, 1.22464679915e-16
137, -2.2, 2.69422295812e-16, 1.34711147906e-16
138, -2.4, 2.93915231795e-16, 1.46957615898e-16
139, -1.8496162184, 2.26512658151e-16, -0.760867823364
140, -2.03457784024, 2.49163923967e-16, -0.836954605701
141, -2.21953946208, 2.71815189782e-16, -0.913041388037
142, -1.42108015537, 1.7403212636e-16, -1.40731346615
143, -1.56318817091, 1.91435338997e-16, -1.54804481277
144, -1.70529618644, 2.08838551633e-16, -1.68877615938
145, -0.778836684617, 9.53799852875e-17, -1.84212198801
146, -0.856720353079, 1.04917983816e-16, -2.02633418681
147, -0.934604021541, 1.14455982345e-16, -2.21054638561
148, -0.674492354278, -0.389418342309, 1.84212198801
149, -0.741941589706, -0.42836017654, 2.02633418681
150, -0.809390825133, -0.46730201077, 2.21054638561
151, -1.23069151536, -0.710540077685, 1.40731346615
152, -1.3537606669, -0.781594085453, 1.54804481277
153, -1.47682981844, -0.852648093222, 1.68877615938
154, -1.60181463239, -0.9248081092, 0.760867823364
155, -1.76199609562, -1.01728892012, 0.836954605701
156, -1.92217755886, -1.10976973104, 0.913041388037
157, -1.73205080757, -1, 1.22464679915e-16
158, -1.90525588833, -1.1, 1.34711147906e-16
159, -2.07846096908, -1.2, 1.46957615898e-16
160, -1.60181463239, -0.9248081092, -0.760867823364
161, -1.76199609562, -1.01728892012, -0.836954605701
162, -1.92217755886, -1.10976973104, -0.913041388037
163, -1.23069151536, -0.710540077685, -1.40731346615
164, -1.3537606669, -0.781594085453, -1.54804481277
165, -1.47682981844, -0.852648093222, -1.68877615938
166, -0.674492354278, -0.389418342309, -1.84212198801
167, -0.741941589706, -0.42836017654, -2.02633418681
168, -0.809390825133, -0.46730201077, -2.21054638561
169, -0.389418342309, -0.674492354278, 1.84212198801
170, -0.42836017654, -0.741941589706, 2.02633418681
171, -0.46730201077, -0.809390825133, 2.21054638561
172, -0.710540077685, -1.23069151536, 1.40731346615
173, -0.781594085453, -1.3537606669, 1.54804481277
174, -0.852648093222, -1.47682981844, 1.68877615938
175, -0.9248081092, -1.60181463239, 0.760867823364
176, -1.01728892012, -1.76199609562, 0.836954605701
177, -1.10976973104, -1.92217755886, 0.913041388037
178, -1, -1.73205080757, 1.22464679915e-16
179, -1.1, -1.90525588833, 1.34711147906e-16
180, -1.2, -2.07846096908, 1.46957615898e-16
181, -0.9248081092, -1.60181463239, -0.760867823364
182, -1.01728892012, -1.76199609562, -0.836954605701
183, -1.10976973104, -1.92217755886, -0.913041388037
184, -0.710540077685, -1.23069151536, -1.40731346615
185, -0.781594085453, -1.3537606669, -1.54804481277
186, -0.852648093222, -1.47682981844, -1.68877615938
187, -0.389418342309, -0.674492354278, -1.84212198801
188, -0.42836017654, -0.741941589706, -2.02633418681
189, -0.46730201077, -0.809390825133, -2.21054638561
190, -1.43069977931e-16, -0.778836684617, 1.84212198801
191, -1.57376975724e-16, -0.856720353079, 2.02633418681
192, -1.71683973518e-16, -0.934604021541, 2.21054638561
193, -2.61048189541e-16, -1.42108015537, 1.40731346615
194, -2.87153008495e-16, -1.56318817091, 1.54804481277
195, -3.13257827449e-16, -1.70529618644, 1.68877615938
196, -3.39768987227e-16, -1.8496162184, 0.760867823364
197, -3.7374588595e-16, -2.03457784024, 0.836954605701
198, -4.07722784673e-16, -2.21953946208, 0.913041388037
199, -3.67394039744e-16, -2, 1.22464679915e-16
200, -4.04133443719e-16, -2.2, 1.34711147906e-16
201, -4.40872847693e-16, -2.4, 1.46957615898e-16
202, -3.39768987227e-16, -1.8496162184, -0.760867823364
203, -3.7374588595e-16, -2.03457784024, -0.836954605701
204, -4.07722784673e-16, -2.21953946208, -0.913041388037
205, -2.61048189541e-16, -1.42108015537, -1.40731346615
206, -2.87153008495e-16, -1.56318817091, -1.54804481277
207, -3.13257827449e-16, -1.70529618644, -1.68877615938
208, -1.43069977931e-16, -0.778836684617, -1.84212198801
209, -1.57376975724e-16, -0.856720353079, -2.02633418681
210, -1.71683973518e-16, -0.934604021541, -2.21054638561
211, 0.389418342309, -0.674492354278, 1.84212198801
212, 0.42836017654, -0.741941589706, 2.02633418681
213, 0.46730201077, -0.809390825133, 2.21054638561
214, 0.710540077685, -1.23069151536, 1.40731346615
215, 0.781594085453, -1.3537606669, 1.54804481277
216, 0.852648093222, -1.47682981844, 1.68877615938
217, 0.9248081092, -1.60181463239, 0.760867823364
218, 1.01728892012, -1.76199609562, 0.836954605701
219, 1.10976973104, -1.92217755886, 0.913041388037
220, 1, -1.73205080757, 1.22464679915e-16
221, 1.1, -1.90525588833, 1.34711147906e-16
222, 1.2, -2.07846096908, 1.46957615898e-16
223, 0.9248081092, -1.60181463239, -0.760867823364
224, 1.01728892012, -1.76199609562, -0.836954605701
225, 1.10976973104, -1.92217755886, -0.913041388037
226, 0.710540077685, -1.23069151536, -1.40731346615
227, 0.781594085453, -1.3537606669, -1.54804481277
228, 0.852648093222, -1.47682981844, -1.68877615938
229, 0.389418342309, -0.674492354278, -1.84212198801
230, 0.42836017654, -0.741941589706, -2.02633418681
231, 0.46730201077, -0.809390825133, -2.21054638561
232, 0.674492354278, -0.389418342309, 1.84212198801
233, 0.741941589706, -0.42836017654, 2.02633418681
234, 0.809390825133, -0.46730201077, 2.21054638561
235, 1.23069151536, -0.710540077685, 1.40731346615
236, 1.3537606669, -0.781594085453, 1.54804481277
237, 1.47682981844, -0.852648093222, 1.68877615938
238, 1.60181463239, -0.9248081092, 0.760867823364
239, 1.76199609562, -1.01728892012, 0.836954605701
240, 1.92217755886, -1.10976973104, 0.913041388037
241, 1.73205080757, -1, 1.22464679915e-16
242, 1.90525588833, -1.1, 1.34711147906e-16
243, 2.07846096908, -1.2, 1.46957615898e-16
244, 1.60181463239, -0.9248081092, -0.760867823364
245, 1.76199609562, -1.01728892012, -0.836954605701
246, 1.92217755886, -1.10976973104, -0.913041388037
247, 1.23069151536, -0.710540077685, -1.40731346615
248, 1.3537606669, -0.781594085453, -1.54804481277
249, 1.47682981844, -0.852648093222, -1.68877615938
250, 0.674492354278, -0.389418342309, -1.84212198801
251, 0.741941589706, -0.42836017654, -2.02633418681
252, 0.809390825133, -0.46730201077, -2.21054638561
*Element, type=C3D8R, elset=HOST
1, 1, 2, 5, 4, 22, 23, 26, 25
2, 2, 3, 6, 5, 23, 24, 27, 26
3, 4, 5, 8, 7, 25, 26, 29, 28
4, 5, 6, 9, 8, 26, 27, 30, 29
5, 7, 8, 11, 10, 28, 29, 32, 31
6, 8, 9, 12, 11, 29, 30, 33, 32
7, 10, 11, 14, 13, 31, 32, 35, 34
8, 11, 12, 15, 14, 32, 33, 36, 35
9, 13, 14, 17, 16, 34, 35, 38, 37
10, 14, 15, 18, 17, 35, 36, 39, 38
11, 16, 17, 20, 19, 37, 38, 41, 40
12, 17, 18, 21, 20, 38, 39, 42, 41
13, 22, 23, 26, 25, 43, 44, 47, 46
14, 23, 24, 27, 26, 44, 45, 48, 47
15, 25, 26, 29, 28, 46, 47, 50, 49
16, 26, 27, 30, 29, 47, 48, 51, 50
17, 28, 29, 32, 31, 49, 50, 53, 52
18, 29, 30, 33, 32, 50, 51, 54, 53
19, 31, 32, 35, 34, 52, 53, 56, 55
20, 32, 33, 36, 35, 53, 54, 57, 56
21, 34, 35, 38, 37, 55, 56, 59, 58
22, 35, 36, 39, 38, 56, 57, 60, 59
23, 37, 38, 41, 40, 58, 59, 62, 61
24, 38, 39, 42, 41, 59, 60, 63, 62
25, 43, 44, 47, 46, 64, 65, 68, 67
26, 44, 45, 48, 47, 65, 66, 69, 68
27, 46, 47, 50, 49, 67, 68, 71, 70
28, 47, 48, 51, 50, 68, 69, 72, 71
29, 49, 50, 53, 52, 70, 71, 74, 73
30, 50, 51, 54, 53, 71, 72, 75, 74
31, 52, 53, 56, 55, 73, 74, 77, 76
32, 53, 54, 57, 56, 74, 75, 78, 77
33, 55, 56, 59, 58, 76, 77, 80, 79
34, 56, 57, 60, 59, 77, 78, 81, 80
35, 58, 59, 62, 61, 79, 80, 83, 82
36, 59, 60, 63, 62, 80, 81, 84, 83
37, 64, 65, 68, 67, 85, 86, 89, 88
38, 65, 66, 69, 68, 86, 87, 90, 89
39, 67, 68, 71, 70, 88, 89, 92, 91
40, 68, 69, 72, 71, 89, 90, 93, 92
41, 70, 71, 74, 73, 91, 92, 95, 94
42, 71, 72, 75, 74, 92, 93, 96, 95
43, 73, 74, 77, 76, 94, 95, 98, 97
44, 74, 75, 78, 77, 95, 96, 99, 98
45, 76, 77, 80, 79, 97, 98, 101, 100
46, 77, 78, 81, 80, 98, 99, 102, 101
47, 79, 80, 83, 82, 100, 101, 104, 103
48, 80, 81, 84, 83, 101, 102, 105, 104
49, 85, 86, 89, 88, 106, 107, 110, 109
50, 86, 87, 90, 89, 107, 108, 111, 110
51, 88, 89, 92, 91, 109, 110, 113, 112
52, 89, 90, 93, 92, 110, 111, 114, 113
53, 91, 92, 95, 94, 112, 113, 116, 115
54, 92, 93, 96, 95, 113, 114, 117, 116
55, 94, 95, 98, 97, 115, 116, 119, 118
56, 95, 96, 99, 98, 116, 117, 120, 119
57, 97, 98, 101, 100, 118, 119, 122, 121
58, 98, 99, 102, 101, 119, 120, 123, 122
59, 100, 101, 104, 103, 121, 122, 125, 124
60, 101, 102, 105, 104, 122, 123, 126, 125
61, 106, 107, 110, 109, 127, 128, 131, 130
62, 107, 108, 111, 110, 128, 129, 132, 131
63, 109, 110, 113, 112, 130, 131, 134, 133
64, 110, 111, 114, 113, 131, 132, 135, 134
65, 112, 113, 116, 115, 133, 134, 137, 136
66, 113, 114, 117, 116, 134, 135, 138, 137
67, 115, 116, 119, 118, 136, 137, 140, 139
68, 116, 117, 120, 119, 137, 138, 141, 140
69, 118, 119, 122, 121, 139, 140, 143, 142
70, 119, 120, 123, 122, 140, 141, 144, 143
71, 121, 122, 125, 124, 142, 143, 146, 145
72, 122, 123, 126, 125, 143, 144, 147, 146
73, 127, 128, 131, 130, 148, 149, 152, 151
74, 128, 129, 132, 131, 149, 150, 153, 152
75, 130, 131, 134, 133, 151, 152, 155, 154
76, 131, 132, 135, 134, 152, 153, 156, 155
77, 133, 134, 137, 136, 154, 155, 158, 157
78, 134, 135, 138, 137, 155, 156, 159, 158
79, 136, 137, 140, 139, 157, 158, 161, 160
80, 137, 138, 141, 140, 158, 159, 162, 161
81, 139, 140, 143, 142, 160, 161, 164, 163
82, 140, 141, 144, 143, 161, 162, 165, 164
83, 142, 143, 146, 145, 163, 164, 167, 166
84, 143, 144, 147, 146, 164, 165, 168, 167
85, 148, 149, 152, 151, 169, 170, 173, 172
86, 149, 150, 153, 152, 170, 171, 174, 173
87, 151, 152, 155, 154, 172, 173, 176, 175
88, 152, 153, 156, 155, 173, 174, 177, 176
89, 154, 155, 158, 157, 175, 176, 179, 178
90, 155, 156, 159, 158, 176, 177, 180, 179
91, 157, 158, 161, 160, 178, 179, 182, 181
92, 158, 159, 162, 161, 179, 180, 183, 182
93, 160, 161, 164, 163, 181, 182, 185, 184
94, 161, 162, 165, 164, 182, 183, 186, 185
95, 163, 164, 167, 166, 184, 185, 188, 187
96, 164, 165, 168, 167, 185, 186, 189, 188
97, 169, 170, 173, 172, 190, 191, 194, 193
98, 170, 171, 174, 173, 191, 192, 195, 194
99, 172, 173, 176, 175, 193, 194, 197, 196
100, 173, 174, 177, 176, 194, 195, 198, 197
101, 175, 176, 179, 178, 196, 197, 200, 199
102, 176, 177, 180, 179, 197, 198, 201, 200
103, 178, 179, 182, 181, 199, 200, 203, 202
104, 179, 180, 183, 182, 200, 201, 204, 203
105, 181, 182, 185, 184, 202, 203, 206, 205
106, 182, 183, 186, 185, 203, 204, 207, 206
107, 184, 185, 188, 187, 205, 206, 209, 208
108, 185, 186, 189, 188, 206, 207, 210, 209
109, 190, 191, 194, 193, 211, 212, 215, 214
110, 191, 192, 195, 194, 212, 213, 216, 215
111, 193, 194, 197, 196, 214, 215, 218, 217
112, 194, 195, 198, 197, 215, 216, 219, 218
113, 196, 197, 200, 199, 217, 218, 221, 220
114, 197, 198, 201, 200, 218, 219, 222, 221
115, 199, 200, 203, 202, 220, 221, 224, 223
116, 200, 201, 204, 203, 221, 222, 225, 224
117, 202, 203, 206, 205, 223, 224, 227, 226
118, 203, 204, 207, 206, 224, 225, 228, 227
119, 205, 206, 209, 208, 226, 227, 230, 229
120, 206, 207, 210, 209, 227, 228, 231, 230
121, 211, 212, 215, 214, 232, 233, 236, 235
122, 212, 213, 216, 215, 233, 234, 237, 236
123, 214, 215, 218, 217, 235, 236, 239, 238
124, 215, 216, 219, 218, 236, 237, 240, 239
125, 217, 218, 221, 220, 238, 239, 242, 241
126, 218, 219, 222, 221, 239, 240, 243, 242
127, 220, 221, 224, 223, 241, 242, 245, 244
128, 221, 222, 225, 224, 242, 243, 246, 245
129, 223, 224, 227, 226, 244, 245, 248, 247
130, 224, 225, 228, 227, 245, 246, 249, 248
131, 226, 227, 230, 229, 247, 248, 251, 250
132, 227, 228, 231, 230, 248, 249, 252, 251
133, 232, 233, 236, 235, 1, 2, 5, 4
134, 233, 234, 237, 236, 2, 3, 6, 5
135, 235, 236, 239, 238, 4, 5, 8, 7
136, 236, 237, 240, 239, 5, 6, 9, 8
137, 238, 239, 242, 241, 7, 8, 11, 10
138, 239, 240, 243, 242, 8, 9, 12, 11
139, 241, 242, 245, 244, 10, 11, 14, 13
140, 242, 243, 246, 245, 11, 12, 15, 14
141, 244, 245, 248, 247, 13, 14, 17, 16
142, 245, 246, 249, 248, 14, 15, 18, 17
143, 247, 248, 251, 250, 16, 17, 20, 19
144, 248, 249, 252, 251, 17, 18, 21, 20
*Solid Section, elset=HOST, material=MATRIX
,
*End Part
*Assembly, name=Assembly
*Instance, name=PLATE-1, part=PLATE
*End Instance
*End Assembly
