*Heading
** verification deck t13_scale_1e-06.inp
*Part, name=PLATE
*Node
1, 0, 0, 0
2, 1e-06, 0, 0
3, 2e-06, 0, 0
4, 0, 1e-06, 0
5, 1e-06, 1e-06, 0
6, 2e-06, 1e-06, 0
7, 0, 2e-06, 0
8, 1e-06, 2e-06, 0
9, 2e-06, 2e-06, 0
10, 0, 0, 5e-07
11, 1e-06, 0, 5e-07
12, 2e-06, 0, 5e-07
13, 0, 1e-06, 5e-07
14, 1e-06, 1e-06, 5e-07
15, 2e-06, 1e-06, 5e-07
16, 0, 2e-06, 5e-07
17, 1e-06, 2e-06, 5e-07
18, 2e-06, 2e-06, 5e-07
19, 0, 0, 1e-06
20, 1e-06, 0, 1e-06
21, 2e-06, 0, 1e-06
22, 0, 1e-06, 1e-06
23, 1e-06, 1e-06, 1e-06
24, 2e-06, 1e-06, 1e-06
25, 0, 2e-06, 1e-06
26, 1e-06, 2e-06, 1e-06
27, 2e-06, 2e-06, 1e-06
*Element, type=C3D8R, elset=HOST
1, 1, 2, 5, 4, 10, 11, 14, 13
2, 2, 3, 6, 5, 11, 12, 15, 14
3, 4, 5, 8, 7, 13, 14, 17, 16
4, 5, 6, 9, 8, 14, 15, 18, 17
5, 10, 11, 14, 13, 19, 20, 23, 22
6, 11, 12, 15, 14, 20, 21, 24, 23
7, 13, 14, 17, 16, 22, 23, 26, 25
8, 14, 15, 18, 17, 23, 24, 27, 26
*End Part
*Assembly, name=Assembly
*Instance, name=PLATE-1, part=PLATE
*End Instance
*End Assembly
** embmesh generated fibers
*Node, nset=EMBMESH_NODES
100000, 0, 1.25e-07, 1.25e-07
100001, 2e-06, 1.25e-07, 1.25e-07
100002, 0, 3.75e-07, 1.25e-07
100003, 2e-06, 3.75e-07, 1.25e-07
100004, 0, 6.25e-07, 1.25e-07
100005, 2e-06, 6.25e-07, 1.25e-07
100006, 0, 8.75e-07, 1.25e-07
100007, 2e-06, 8.75e-07, 1.25e-07
100008, 0, 1.125e-06, 1.25e-07
100009, 2e-06, 1.125e-06, 1.25e-07
100010, 0, 1.375e-06, 1.25e-07
100011, 2e-06, 1.375e-06, 1.25e-07
100012, 0, 1.625e-06, 1.25e-07
100013, 2e-06, 1.625e-06, 1.25e-07
100014, 0, 1.875e-06, 1.25e-07
100015, 2e-06, 1.875e-06, 1.25e-07
100016, 1.25e-07, 0, 3.75e-07
100017, 1.25e-07, 2e-06, 3.75e-07
100018, 3.75e-07, 0, 3.75e-07
100019, 3.75e-07, 2e-06, 3.75e-07
100020, 6.25e-07, 0, 3.75e-07
100021, 6.25e-07, 2e-06, 3.75e-07
100022, 8.75e-07, 0, 3.75e-07
100023, 8.75e-07, 2e-06, 3.75e-07
100024, 1.125e-06, 0, 3.75e-07
100025, 1.125e-06, 2e-06, 3.75e-07
100026, 1.375e-06, 0, 3.75e-07
100027, 1.375e-06, 2e-06, 3.75e-07
100028, 1.625e-06, 0, 3.75e-07
100029, 1.625e-06, 2e-06, 3.75e-07
100030, 1.875e-06, 0, 3.75e-07
100031, 1.875e-06, 2e-06, 3.75e-07
100032, 0, 1.25e-07, 6.25e-07
100033, 2e-06, 1.25e-07, 6.25e-07
100034, 0, 3.75e-07, 6.25e-07
100035, 2e-06, 3.75e-07, 6.25e-07
100036, 0, 6.25e-07, 6.25e-07
100037, 2e-06, 6.25e-07, 6.25e-07
100038, 0, 8.75e-07, 6.25e-07
100039, 2e-06, 8.75e-07, 6.25e-07
100040, 0, 1.125e-06, 6.25e-07
100041, 2e-06, 1.125e-06, 6.25e-07
100042, 0, 1.375e-06, 6.25e-07
100043, 2e-06, 1.375e-06, 6.25e-07
100044, 0, 1.625e-06, 6.25e-07
100045, 2e-06, 1.625e-06, 6.25e-07
100046, 0, 1.875e-06, 6.25e-07
100047, 2e-06, 1.875e-06, 6.25e-07
100048, 1.25e-07, 0, 8.75e-07
100049, 1.25e-07, 2e-06, 8.75e-07
100050, 3.75e-07, 0, 8.75e-07
100051, 3.75e-07, 2e-06, 8.75e-07
100052, 6.25e-07, 0, 8.75e-07
100053, 6.25e-07, 2e-06, 8.75e-07
100054, 8.75e-07, 0, 8.75e-07
100055, 8.75e-07, 2e-06, 8.75e-07
100056, 1.125e-06, 0, 8.75e-07
100057, 1.125e-06, 2e-06, 8.75e-07
100058, 1.375e-06, 0, 8.75e-07
100059, 1.375e-06, 2e-06, 8.75e-07
100060, 1.625e-06, 0, 8.75e-07
100061, 1.625e-06, 2e-06, 8.75e-07
100062, 1.875e-06, 0, 8.75e-07
100063, 1.875e-06, 2e-06, 8.75e-07
*Element, type=T3D2, elset=EMBMESH_FIBERS
100000, 100000,100001
100001, 100002,100003
100002, 100004,100005
100003, 100006,100007
100004, 100008,100009
100005, 100010,100011
100006, 100012,100013
100007, 100014,100015
100008, 100016,100017
100009, 100018,100019
100010, 100020,100021
100011, 100022,100023
100012, 100024,100025
100013, 100026,100027
100014, 100028,100029
100015, 100030,100031
100016, 100032,100033
100017, 100034,100035
100018, 100036,100037
100019, 100038,100039
100020, 100040,100041
100021, 100042,100043
100022, 100044,100045
100023, 100046,100047
100024, 100048,100049
100025, 100050,100051
100026, 100052,100053
100027, 100054,100055
100028, 100056,100057
100029, 100058,100059
100030, 100060,100061
100031, 100062,100063
*Solid Section, elset=EMBMESH_FIBERS, material=EMBMESH_FIBER
4.90873852123405e-14
*Material, name=EMBMESH_FIBER
*Elastic
1., 0.3
*Embedded Element, host elset=HOST
EMBMESH_FIBERS
