*Heading
*Preprint, echo=NO, model=YES, history=NO, contact=NO
** verification deck cantilever_10x2x2_src.inp
*Part, name=PLATE
*Node
1, 0, 0, 0
2, 10, 0, 0
3, 20, 0, 0
4, 30, 0, 0
5, 40, 0, 0
6, 50, 0, 0
7, 60, 0, 0
8, 70, 0, 0
9, 80, 0, 0
10, 90, 0, 0
11, 100, 0, 0
12, 0, 5, 0
13, 10, 5, 0
14, 20, 5, 0
15, 30, 5, 0
16, 40, 5, 0
17, 50, 5, 0
18, 60, 5, 0
19, 70, 5, 0
20, 80, 5, 0
21, 90, 5, 0
22, 100, 5, 0
23, 0, 10, 0
24, 10, 10, 0
25, 20, 10, 0
26, 30, 10, 0
27, 40, 10, 0
28, 50, 10, 0
29, 60, 10, 0
30, 70, 10, 0
31, 80, 10, 0
32, 90, 10, 0
33, 100, 10, 0
34, 0, 0, 5
35, 10, 0, 5
36, 20, 0, 5
37, 30, 0, 5
38, 40, 0, 5
39, 50, 0, 5
40, 60, 0, 5
41, 70, 0, 5
42, 80, 0, 5
43, 90, 0, 5
44, 100, 0, 5
45, 0, 5, 5
46, 10, 5, 5
47, 20, 5, 5
48, 30, 5, 5
49, 40, 5, 5
50, 50, 5, 5
51, 60, 5, 5
52, 70, 5, 5
53, 80, 5, 5
54, 90, 5, 5
55, 100, 5, 5
56, 0, 10, 5
57, 10, 10, 5
58, 20, 10, 5
59, 30, 10, 5
60, 40, 10, 5
61, 50, 10, 5
62, 60, 10, 5
63, 70, 10, 5
64, 80, 10, 5
65, 90, 10, 5
66, 100, 10, 5
67, 0, 0, 10
68, 10, 0, 10
69, 20, 0, 10
70, 30, 0, 10
71, 40, 0, 10
72, 50, 0, 10
73, 60, 0, 10
74, 70, 0, 10
75, 80, 0, 10
76, 90, 0, 10
77, 100, 0, 10
78, 0, 5, 10
79, 10, 5, 10
80, 20, 5, 10
81, 30, 5, 10
82, 40, 5, 10
83, 50, 5, 10
84, 60, 5, 10
85, 70, 5, 10
86, 80, 5, 10
87, 90, 5, 10
88, 100, 5, 10
89, 0, 10, 10
90, 10, 10, 10
91, 20, 10, 10
92, 30, 10, 10
93, 40, 10, 10
94, 50, 10, 10
95, 60, 10, 10
96, 70, 10, 10
97, 80, 10, 10
98, 90, 10, 10
99, 100, 10, 10
*Element, type=C3D8R, elset=HOST
1, 1, 2, 13, 12, 34, 35, 46, 45
2, 2, 3, 14, 13, 35, 36, 47, 46
3, 3, 4, 15, 14, 36, 37, 48, 47
4, 4, 5, 16, 15, 37, 38, 49, 48
5, 5, 6, 17, 16, 38, 39, 50, 49
6, 6, 7, 18, 17, 39, 40, 51, 50
7, 7, 8, 19, 18, 40, 41, 52, 51
8, 8, 9, 20, 19, 41, 42, 53, 52
9, 9, 10, 21, 20, 42, 43, 54, 53
10, 10, 11, 22, 21, 43, 44, 55, 54
11, 12, 13, 24, 23, 45, 46, 57, 56
12, 13, 14, 25, 24, 46, 47, 58, 57
13, 14, 15, 26, 25, 47, 48, 59, 58
14, 15, 16, 27, 26, 48, 49, 60, 59
15, 16, 17, 28, 27, 49, 50, 61, 60
16, 17, 18, 29, 28, 50, 51, 62, 61
17, 18, 19, 30, 29, 51, 52, 63, 62
18, 19, 20, 31, 30, 52, 53, 64, 63
19, 20, 21, 32, 31, 53, 54, 65, 64
20, 21, 22, 33, 32, 54, 55, 66, 65
21, 34, 35, 46, 45, 67, 68, 79, 78
22, 35, 36, 47, 46, 68, 69, 80, 79
23, 36, 37, 48, 47, 69, 70, 81, 80
24, 37, 38, 49, 48, 70, 71, 82, 81
25, 38, 39, 50, 49, 71, 72, 83, 82
26, 39, 40, 51, 50, 72, 73, 84, 83
27, 40, 41, 52, 51, 73, 74, 85, 84
28, 41, 42, 53, 52, 74, 75, 86, 85
29, 42, 43, 54, 53, 75, 76, 87, 86
30, 43, 44, 55, 54, 76, 77, 88, 87
31, 45, 46, 57, 56, 78, 79, 90, 89
32, 46, 47, 58, 57, 79, 80, 91, 90
33, 47, 48, 59, 58, 80, 81, 92, 91
34, 48, 49, 60, 59, 81, 82, 93, 92
35, 49, 50, 61, 60, 82, 83, 94, 93
36, 50, 51, 62, 61, 83, 84, 95, 94
37, 51, 52, 63, 62, 84, 85, 96, 95
38, 52, 53, 64, 63, 85, 86, 97, 96
39, 53, 54, 65, 64, 86, 87, 98, 97
40, 54, 55, 66, 65, 87, 88, 99, 98
*Solid Section, elset=HOST, material=MATRIX
,
*End Part
*Part, name=EMBFIB
** embmesh generated fibers
*Node, nset=EMBMESH_NODES
100000, 0, 1, 9
100001, 100, 1, 9
100002, 0, 1, 7
100003, 100, 1, 7
100004, 0, 1, 5
100005, 100, 1, 5
100006, 0, 1, 3
100007, 100, 1, 3
100008, 0, 1, 1
100009, 100, 1, 1
100010, 1, 3, 10
100011, 1, 3, 0
100012, 3, 3, 10
100013, 3, 3, 0
100014, 5, 3, 10
100015, 5, 3, 0
100016, 7, 3, 10
100017, 7, 3, 0
100018, 9, 3, 10
100019, 9, 3, 0
100020, 11, 3, 10
100021, 11, 3, 0
100022, 13, 3, 10
100023, 13, 3, 0
100024, 15, 3, 10
100025, 15, 3, 0
100026, 17, 3, 10
100027, 17, 3, 0
100028, 19, 3, 10
100029, 19, 3, 0
100030, 21, 3, 10
100031, 21, 3, 0
100032, 23, 3, 10
100033, 23, 3, 0
100034, 25, 3, 10
100035, 25, 3, 0
100036, 27, 3, 10
100037, 27, 3, 0
100038, 29, 3, 10
100039, 29, 3, 0
100040, 31, 3, 10
100041, 31, 3, 0
100042, 33, 3, 10
100043, 33, 3, 0
100044, 35, 3, 10
100045, 35, 3, 0
100046, 37, 3, 10
100047, 37, 3, 0
100048, 39, 3, 10
100049, 39, 3, 0
100050, 41, 3, 10
100051, 41, 3, 0
100052, 43, 3, 10
100053, 43, 3, 0
100054, 45, 3, 10
100055, 45, 3, 0
100056, 47, 3, 10
100057, 47, 3, 0
100058, 49, 3, 10
100059, 49, 3, 0
100060, 51, 3, 10
100061, 51, 3, 0
100062, 53, 3, 10
100063, 53, 3, 0
100064, 55, 3, 10
100065, 55, 3, 0
100066, 57, 3, 10
100067, 57, 3, 0
100068, 59, 3, 10
100069, 59, 3, 0
100070, 61, 3, 10
100071, 61, 3, 0
100072, 63, 3, 10
100073, 63, 3, 0
100074, 65, 3, 10
100075, 65, 3, 0
100076, 67, 3, 10
100077, 67, 3, 0
100078, 69, 3, 10
100079, 69, 3, 0
100080, 71, 3, 10
100081, 71, 3, 0
100082, 73, 3, 10
100083, 73, 3, 0
100084, 75, 3, 10
100085, 75, 3, 0
100086, 77, 3, 10
100087, 77, 3, 0
100088, 79, 3, 10
100089, 79, 3, 0
100090, 81, 3, 10
100091, 81, 3, 0
100092, 83, 3, 10
100093, 83, 3, 0
100094, 85, 3, 10
100095, 85, 3, 0
100096, 87, 3, 10
100097, 87, 3, 0
100098, 89, 3, 10
100099, 89, 3, 0
100100, 91, 3, 10
100101, 91, 3, 0
100102, 93, 3, 10
100103, 93, 3, 0
100104, 95, 3, 10
100105, 95, 3, 0
100106, 97, 3, 10
100107, 97, 3, 0
100108, 99, 3, 10
100109, 99, 3, 0
100110, 0, 5, 9
100111, 100, 5, 9
100112, 0, 5, 7
100113, 100, 5, 7
100114, 0, 5, 5
100115, 100, 5, 5
100116, 0, 5, 3
100117, 100, 5, 3
100118, 0, 5, 1
100119, 100, 5, 1
100120, 1, 7, 10
100121, 1, 7, 0
100122, 3, 7, 10
100123, 3, 7, 0
100124, 5, 7, 10
100125, 5, 7, 0
100126, 7, 7, 10
100127, 7, 7, 0
100128, 9, 7, 10
100129, 9, 7, 0
100130, 11, 7, 10
100131, 11, 7, 0
100132, 13, 7, 10
100133, 13, 7, 0
100134, 15, 7, 10
100135, 15, 7, 0
100136, 17, 7, 10
100137, 17, 7, 0
100138, 19, 7, 10
100139, 19, 7, 0
100140, 21, 7, 10
100141, 21, 7, 0
100142, 23, 7, 10
100143, 23, 7, 0
100144, 25, 7, 10
100145, 25, 7, 0
100146, 27, 7, 10
100147, 27, 7, 0
100148, 29, 7, 10
100149, 29, 7, 0
100150, 31, 7, 10
100151, 31, 7, 0
100152, 33, 7, 10
100153, 33, 7, 0
100154, 35, 7, 10
100155, 35, 7, 0
100156, 37, 7, 10
100157, 37, 7, 0
100158, 39, 7, 10
100159, 39, 7, 0
100160, 41, 7, 10
100161, 41, 7, 0
100162, 43, 7, 10
100163, 43, 7, 0
100164, 45, 7, 10
100165, 45, 7, 0
100166, 47, 7, 10
100167, 47, 7, 0
100168, 49, 7, 10
100169, 49, 7, 0
100170, 51, 7, 10
100171, 51, 7, 0
100172, 53, 7, 10
100173, 53, 7, 0
100174, 55, 7, 10
100175, 55, 7, 0
100176, 57, 7, 10
100177, 57, 7, 0
100178, 59, 7, 10
100179, 59, 7, 0
100180, 61, 7, 10
100181, 61, 7, 0
100182, 63, 7, 10
100183, 63, 7, 0
100184, 65, 7, 10
100185, 65, 7, 0
100186, 67, 7, 10
100187, 67, 7, 0
100188, 69, 7, 10
100189, 69, 7, 0
100190, 71, 7, 10
100191, 71, 7, 0
100192, 73, 7, 10
100193, 73, 7, 0
100194, 75, 7, 10
100195, 75, 7, 0
100196, 77, 7, 10
100197, 77, 7, 0
100198, 79, 7, 10
100199, 79, 7, 0
100200, 81, 7, 10
100201, 81, 7, 0
100202, 83, 7, 10
100203, 83, 7, 0
100204, 85, 7, 10
100205, 85, 7, 0
100206, 87, 7, 10
100207, 87, 7, 0
100208, 89, 7, 10
100209, 89, 7, 0
100210, 91, 7, 10
100211, 91, 7, 0
100212, 93, 7, 10
100213, 93, 7, 0
100214, 95, 7, 10
100215, 95, 7, 0
100216, 97, 7, 10
100217, 97, 7, 0
100218, 99, 7, 10
100219, 99, 7, 0
100220, 0, 9, 9
100221, 100, 9, 9
100222, 0, 9, 7
100223, 100, 9, 7
100224, 0, 9, 5
100225, 100, 9, 5
100226, 0, 9, 3
100227, 100, 9, 3
100228, 0, 9, 1
100229, 100, 9, 1
*Element, type=T3D2, elset=EMBMESH_FIBERS
100000, 100000,100001
100001, 100002,100003
100002, 100004,100005
100003, 100006,100007
100004, 100008,100009
100005, 100010,100011
100006, 100012,100013
100007, 100014,100015
100008, 100016,100017
100009, 100018,100019
100010, 100020,100021
100011, 100022,100023
100012, 100024,100025
100013, 100026,100027
100014, 100028,100029
100015, 100030,100031
100016, 100032,100033
100017, 100034,100035
100018, 100036,100037
100019, 100038,100039
100020, 100040,100041
100021, 100042,100043
100022, 100044,100045
100023, 100046,100047
100024, 100048,100049
100025, 100050,100051
100026, 100052,100053
100027, 100054,100055
100028, 100056,100057
100029, 100058,100059
100030, 100060,100061
100031, 100062,100063
100032, 100064,100065
100033, 100066,100067
100034, 100068,100069
100035, 100070,100071
100036, 100072,100073
100037, 100074,100075
100038, 100076,100077
100039, 100078,100079
100040, 100080,100081
100041, 100082,100083
100042, 100084,100085
100043, 100086,100087
100044, 100088,100089
100045, 100090,100091
100046, 100092,100093
100047, 100094,100095
100048, 100096,100097
100049, 100098,100099
100050, 100100,100101
100051, 100102,100103
100052, 100104,100105
100053, 100106,100107
100054, 100108,100109
100055, 100110,100111
100056, 100112,100113
100057, 100114,100115
100058, 100116,100117
100059, 100118,100119
100060, 100120,100121
100061, 100122,100123
100062, 100124,100125
100063, 100126,100127
100064, 100128,100129
100065, 100130,100131
100066, 100132,100133
100067, 100134,100135
100068, 100136,100137
100069, 100138,100139
100070, 100140,100141
100071, 100142,100143
100072, 100144,100145
100073, 100146,100147
100074, 100148,100149
100075, 100150,100151
100076, 100152,100153
100077, 100154,100155
100078, 100156,100157
100079, 100158,100159
100080, 100160,100161
100081, 100162,100163
100082, 100164,100165
100083, 100166,100167
100084, 100168,100169
100085, 100170,100171
100086, 100172,100173
100087, 100174,100175
100088, 100176,100177
100089, 100178,100179
100090, 100180,100181
100091, 100182,100183
100092, 100184,100185
100093, 100186,100187
100094, 100188,100189
100095, 100190,100191
100096, 100192,100193
100097, 100194,100195
100098, 100196,100197
100099, 100198,100199
100100, 100200,100201
100101, 100202,100203
100102, 100204,100205
100103, 100206,100207
100104, 100208,100209
100105, 100210,100211
100106, 100212,100213
100107, 100214,100215
100108, 100216,100217
100109, 100218,100219
100110, 100220,100221
100111, 100222,100223
100112, 100224,100225
100113, 100226,100227
100114, 100228,100229
*Solid Section, elset=EMBMESH_FIBERS, material=FIBER
3.14159265358979
*End Part
*Assembly, name=Assembly
*Instance, name=PLATE-1, part=PLATE
*End Instance
*Nset, nset=FIXED, instance=PLATE-1
1, 12, 23, 34, 45, 56, 67, 78, 89
*Nset, nset=TIP, instance=PLATE-1
11, 22, 33, 44, 55, 66, 77, 88, 99
*Instance, name=EMBFIB-1, part=EMBFIB
*End Instance
*Embedded Element, host elset=PLATE-1.HOST
EMBFIB-1.EMBMESH_FIBERS
*End Assembly
*Material, name=MATRIX
*Density
1.2e-09,
*Elastic
3500, 0.35
*Material, name=FIBER
*Density
1.8e-09,
*Elastic
230000, 0.2
*Amplitude, name=RAMP, definition=SMOOTH STEP
0., 0., 0.0004, 1.
*Step, name=S1
*Dynamic, Explicit
, 0.0004
*Fixed Mass Scaling, factor=1.0
*Boundary
FIXED, 1, 3
*Dload
PLATE-1.HOST, GRAV, 9810., 0., 0., -1.
*Output, history, frequency=1000000
*Node Output, nset=TIP
RF1, RF2, RF3, U1, U2, U3
*Output, field, number interval=5
*Node Output
U, RF
*Element Output, directions=YES
S, E
*Output, history, time interval=8e-06
*Energy Output
ALLIE, ALLKE, ALLWK, ALLVD, ALLAE, ETOTAL
*End Step