*Heading
*Preprint, echo=NO, model=YES, history=NO, contact=NO
** verification deck cantilever_40x4x4_src.inp
*Part, name=PLATE
*Node
1, 0, 0, 0
2, 2.5, 0, 0
3, 5, 0, 0
4, 7.5, 0, 0
5, 10, 0, 0
6, 12.5, 0, 0
7, 15, 0, 0
8, 17.5, 0, 0
9, 20, 0, 0
10, 22.5, 0, 0
11, 25, 0, 0
12, 27.5, 0, 0
13, 30, 0, 0
14, 32.5, 0, 0
15, 35, 0, 0
16, 37.5, 0, 0
17, 40, 0, 0
18, 42.5, 0, 0
19, 45, 0, 0
20, 47.5, 0, 0
21, 50, 0, 0
22, 52.5, 0, 0
23, 55, 0, 0
24, 57.5, 0, 0
25, 60, 0, 0
26, 62.5, 0, 0
27, 65, 0, 0
28, 67.5, 0, 0
29, 70, 0, 0
30, 72.5, 0, 0
31, 75, 0, 0
32, 77.5, 0, 0
33, 80, 0, 0
34, 82.5, 0, 0
35, 85, 0, 0
36, 87.5, 0, 0
37, 90, 0, 0
38, 92.5, 0, 0
39, 95, 0, 0
40, 97.5, 0, 0
41, 100, 0, 0
42, 0, 2.5, 0
43, 2.5, 2.5, 0
44, 5, 2.5, 0
45, 7.5, 2.5, 0
46, 10, 2.5, 0
47, 12.5, 2.5, 0
48, 15, 2.5, 0
49, 17.5, 2.5, 0
50, 20, 2.5, 0
51, 22.5, 2.5, 0
52, 25, 2.5, 0
53, 27.5, 2.5, 0
54, 30, 2.5, 0
55, 32.5, 2.5, 0
56, 35, 2.5, 0
57, 37.5, 2.5, 0
58, 40, 2.5, 0
59, 42.5, 2.5, 0
60, 45, 2.5, 0
61, 47.5, 2.5, 0
62, 50, 2.5, 0
63, 52.5, 2.5, 0
64, 55, 2.5, 0
65, 57.5, 2.5, 0
66, 60, 2.5, 0
67, 62.5, 2.5, 0
68, 65, 2.5, 0
69, 67.5, 2.5, 0
70, 70, 2.5, 0
71, 72.5, 2.5, 0
72, 75, 2.5, 0
73, 77.5, 2.5, 0
74, 80, 2.5, 0
75, 82.5, 2.5, 0
76, 85, 2.5, 0
77, 87.5, 2.5, 0
78, 90, 2.5, 0
79, 92.5, 2.5, 0
80, 95, 2.5, 0
81, 97.5, 2.5, 0
82, 100, 2.5, 0
83, 0, 5, 0
84, 2.5, 5, 0
85, 5, 5, 0
86, 7.5, 5, 0
87, 10, 5, 0
88, 12.5, 5, 0
89, 15, 5, 0
90, 17.5, 5, 0
91, 20, 5, 0
92, 22.5, 5, 0
93, 25, 5, 0
94, 27.5, 5, 0
95, 30, 5, 0
96, 32.5, 5, 0
97, 35, 5, 0
98, 37.5, 5, 0
99, 40, 5, 0
100, 42.5, 5, 0
101, 45, 5, 0
102, 47.5, 5, 0
103, 50, 5, 0
104, 52.5, 5, 0
105, 55, 5, 0
106, 57.5, 5, 0
107, 60, 5, 0
108, 62.5, 5, 0
109, 65, 5, 0
110, 67.5, 5, 0
111, 70, 5, 0
112, 72.5, 5, 0
113, 75, 5, 0
114, 77.5, 5, 0
115, 80, 5, 0
116, 82.5, 5, 0
117, 85, 5, 0
118, 87.5, 5, 0
119, 90, 5, 0
120, 92.5, 5, 0
121, 95, 5, 0
122, 97.5, 5, 0
123, 100, 5, 0
124, 0, 7.5, 0
125, 2.5, 7.5, 0
126, 5, 7.5, 0
127, 7.5, 7.5, 0
128, 10, 7.5, 0
129, 12.5, 7.5, 0
130, 15, 7.5, 0
131, 17.5, 7.5, 0
132, 20, 7.5, 0
133, 22.5, 7.5, 0
134, 25, 7.5, 0
135, 27.5, 7.5, 0
136, 30, 7.5, 0
137, 32.5, 7.5, 0
138, 35, 7.5, 0
139, 37.5, 7.5, 0
140, 40, 7.5, 0
141, 42.5, 7.5, 0
142, 45, 7.5, 0
143, 47.5, 7.5, 0
144, 50, 7.5, 0
145, 52.5, 7.5, 0
146, 55, 7.5, 0
147, 57.5, 7.5, 0
148, 60, 7.5, 0
149, 62.5, 7.5, 0
150, 65, 7.5, 0
151, 67.5, 7.5, 0
152, 70, 7.5, 0
153, 72.5, 7.5, 0
154, 75, 7.5, 0
155, 77.5, 7.5, 0
156, 80, 7.5, 0
157, 82.5, 7.5, 0
158, 85, 7.5, 0
159, 87.5, 7.5, 0
160, 90, 7.5, 0
161, 92.5, 7.5, 0
162, 95, 7.5, 0
163, 97.5, 7.5, 0
164, 100, 7.5, 0
165, 0, 10, 0
166, 2.5, 10, 0
167, 5, 10, 0
168, 7.5, 10, 0
169, 10, 10, 0
170, 12.5, 10, 0
171, 15, 10, 0
172, 17.5, 10, 0
173, 20, 10, 0
174, 22.5, 10, 0
175, 25, 10, 0
176, 27.5, 10, 0
177, 30, 10, 0
178, 32.5, 10, 0
179, 35, 10, 0
180, 37.5, 10, 0
181, 40, 10, 0
182, 42.5, 10, 0
183, 45, 10, 0
184, 47.5, 10, 0
185, 50, 10, 0
186, 52.5, 10, 0
187, 55, 10, 0
188, 57.5, 10, 0
189, 60, 10, 0
190, 62.5, 10, 0
191, 65, 10, 0
192, 67.5, 10, 0
193, 70, 10, 0
194, 72.5, 10, 0
195, 75, 10, 0
196, 77.5, 10, 0
197, 80, 10, 0
198, 82.5, 10, 0
199, 85, 10, 0
200, 87.5, 10, 0
201, 90, 10, 0
202, 92.5, 10, 0
203, 95, 10, 0
204, 97.5, 10, 0
205, 100, 10, 0
206, 0, 0, 2.5
207, 2.5, 0, 2.5
208, 5, 0, 2.5
209, 7.5, 0, 2.5
210, 10, 0, 2.5
211, 12.5, 0, 2.5
212, 15, 0, 2.5
213, 17.5, 0, 2.5
214, 20, 0, 2.5
215, 22.5, 0, 2.5
216, 25, 0, 2.5
217, 27.5, 0, 2.5
218, 30, 0, 2.5
219, 32.5, 0, 2.5
220, 35, 0, 2.5
221, 37.5, 0, 2.5
222, 40, 0, 2.5
223, 42.5, 0, 2.5
224, 45, 0, 2.5
225, 47.5, 0, 2.5
226, 50, 0, 2.5
227, 52.5, 0, 2.5
228, 55, 0, 2.5
229, 57.5, 0, 2.5
230, 60, 0, 2.5
231, 62.5, 0, 2.5
232, 65, 0, 2.5
233, 67.5, 0, 2.5
234, 70, 0, 2.5
235, 72.5, 0, 2.5
236, 75, 0, 2.5
237, 77.5, 0, 2.5
238, 80, 0, 2.5
239, 82.5, 0, 2.5
240, 85, 0, 2.5
241, 87.5, 0, 2.5
242, 90, 0, 2.5
243, 92.5, 0, 2.5
244, 95, 0, 2.5
245, 97.5, 0, 2.5
246, 100, 0, 2.5
247, 0, 2.5, 2.5
248, 2.5, 2.5, 2.5
249, 5, 2.5, 2.5
250, 7.5, 2.5, 2.5
251, 10, 2.5, 2.5
252, 12.5, 2.5, 2.5
253, 15, 2.5, 2.5
254, 17.5, 2.5, 2.5
255, 20, 2.5, 2.5
256, 22.5, 2.5, 2.5
257, 25, 2.5, 2.5
258, 27.5, 2.5, 2.5
259, 30, 2.5, 2.5
260, 32.5, 2.5, 2.5
261, 35, 2.5, 2.5
262, 37.5, 2.5, 2.5
263, 40, 2.5, 2.5
264, 42.5, 2.5, 2.5
265, 45, 2.5, 2.5
266, 47.5, 2.5, 2.5
267, 50, 2.5, 2.5
268, 52.5, 2.5, 2.5
269, 55, 2.5, 2.5
270, 57.5, 2.5, 2.5
271, 60, 2.5, 2.5
272, 62.5, 2.5, 2.5
273, 65, 2.5, 2.5
274, 67.5, 2.5, 2.5
275, 70, 2.5, 2.5
276, 72.5, 2.5, 2.5
277, 75, 2.5, 2.5
278, 77.5, 2.5, 2.5
279, 80, 2.5, 2.5
280, 82.5, 2.5, 2.5
281, 85, 2.5, 2.5
282, 87.5, 2.5, 2.5
283, 90, 2.5, 2.5
284, 92.5, 2.5, 2.5
285, 95, 2.5, 2.5
286, 97.5, 2.5, 2.5
287, 100, 2.5, 2.5
288, 0, 5, 2.5
289, 2.5, 5, 2.5
290, 5, 5, 2.5
291, 7.5, 5, 2.5
292, 10, 5, 2.5
293, 12.5, 5, 2.5
294, 15, 5, 2.5
295, 17.5, 5, 2.5
296, 20, 5, 2.5
297, 22.5, 5, 2.5
298, 25, 5, 2.5
299, 27.5, 5, 2.5
300, 30, 5, 2.5
301, 32.5, 5, 2.5
302, 35, 5, 2.5
303, 37.5, 5, 2.5
304, 40, 5, 2.5
305, 42.5, 5, 2.5
306, 45, 5, 2.5
307, 47.5, 5, 2.5
308, 50, 5, 2.5
309, 52.5, 5, 2.5
310, 55, 5, 2.5
311, 57.5, 5, 2.5
312, 60, 5, 2.5
313, 62.5, 5, 2.5
314, 65, 5, 2.5
315, 67.5, 5, 2.5
316, 70, 5, 2.5
317, 72.5, 5, 2.5
318, 75, 5, 2.5
319, 77.5, 5, 2.5
320, 80, 5, 2.5
321, 82.5, 5, 2.5
322, 85, 5, 2.5
323, 87.5, 5, 2.5
324, 90, 5, 2.5
325, 92.5, 5, 2.5
326, 95, 5, 2.5
327, 97.5, 5, 2.5
328, 100, 5, 2.5
329, 0, 7.5, 2.5
330, 2.5, 7.5, 2.5
331, 5, 7.5, 2.5
332, 7.5, 7.5, 2.5
333, 10, 7.5, 2.5
334, 12.5, 7.5, 2.5
335, 15, 7.5, 2.5
336, 17.5, 7.5, 2.5
337, 20, 7.5, 2.5
338, 22.5, 7.5, 2.5
339, 25, 7.5, 2.5
340, 27.5, 7.5, 2.5
341, 30, 7.5, 2.5
342, 32.5, 7.5, 2.5
343, 35, 7.5, 2.5
344, 37.5, 7.5, 2.5
345, 40, 7.5, 2.5
346, 42.5, 7.5, 2.5
347, 45, 7.5, 2.5
348, 47.5, 7.5, 2.5
349, 50, 7.5, 2.5
350, 52.5, 7.5, 2.5
351, 55, 7.5, 2.5
352, 57.5, 7.5, 2.5
353, 60, 7.5, 2.5
354, 62.5, 7.5, 2.5
355, 65, 7.5, 2.5
356, 67.5, 7.5, 2.5
357, 70, 7.5, 2.5
358, 72.5, 7.5, 2.5
359, 75, 7.5, 2.5
360, 77.5, 7.5, 2.5
361, 80, 7.5, 2.5
362, 82.5, 7.5, 2.5
363, 85, 7.5, 2.5
364, 87.5, 7.5, 2.5
365, 90, 7.5, 2.5
366, 92.5, 7.5, 2.5
367, 95, 7.5, 2.5
368, 97.5, 7.5, 2.5
369, 100, 7.5, 2.5
370, 0, 10, 2.5
371, 2.5, 10, 2.5
372, 5, 10, 2.5
373, 7.5, 10, 2.5
374, 10, 10, 2.5
375, 12.5, 10, 2.5
376, 15, 10, 2.5
377, 17.5, 10, 2.5
378, 20, 10, 2.5
379, 22.5, 10, 2.5
380, 25, 10, 2.5
381, 27.5, 10, 2.5
382, 30, 10, 2.5
383, 32.5, 10, 2.5
384, 35, 10, 2.5
385, 37.5, 10, 2.5
386, 40, 10, 2.5
387, 42.5, 10, 2.5
388, 45, 10, 2.5
389, 47.5, 10, 2.5
390, 50, 10, 2.5
391, 52.5, 10, 2.5
392, 55, 10, 2.5
393, 57.5, 10, 2.5
394, 60, 10, 2.5
395, 62.5, 10, 2.5
396, 65, 10, 2.5
397, 67.5, 10, 2.5
398, 70, 10, 2.5
399, 72.5, 10, 2.5
400, 75, 10, 2.5
401, 77.5, 10, 2.5
402, 80, 10, 2.5
403, 82.5, 10, 2.5
404, 85, 10, 2.5
405, 87.5, 10, 2.5
406, 90, 10, 2.5
407, 92.5, 10, 2.5
408, 95, 10, 2.5
409, 97.5, 10, 2.5
410, 100, 10, 2.5
411, 0, 0, 5
412, 2.5, 0, 5
413, 5, 0, 5
414, 7.5, 0, 5
415, 10, 0, 5
416, 12.5, 0, 5
417, 15, 0, 5
418, 17.5, 0, 5
419, 20, 0, 5
420, 22.5, 0, 5
421, 25, 0, 5
422, 27.5, 0, 5
423, 30, 0, 5
424, 32.5, 0, 5
425, 35, 0, 5
426, 37.5, 0, 5
427, 40, 0, 5
428, 42.5, 0, 5
429, 45, 0, 5
430, 47.5, 0, 5
431, 50, 0, 5
432, 52.5, 0, 5
433, 55, 0, 5
434, 57.5, 0, 5
435, 60, 0, 5
436, 62.5, 0, 5
437, 65, 0, 5
438, 67.5, 0, 5
439, 70, 0, 5
440, 72.5, 0, 5
441, 75, 0, 5
442, 77.5, 0, 5
443, 80, 0, 5
444, 82.5, 0, 5
445, 85, 0, 5
446, 87.5, 0, 5
447, 90, 0, 5
448, 92.5, 0, 5
449, 95, 0, 5
450, 97.5, 0, 5
451, 100, 0, 5
452, 0, 2.5, 5
453, 2.5, 2.5, 5
454, 5, 2.5, 5
455, 7.5, 2.5, 5
456, 10, 2.5, 5
457, 12.5, 2.5, 5
458, 15, 2.5, 5
459, 17.5, 2.5, 5
460, 20, 2.5, 5
461, 22.5, 2.5, 5
462, 25, 2.5, 5
463, 27.5, 2.5, 5
464, 30, 2.5, 5
465, 32.5, 2.5, 5
466, 35, 2.5, 5
467, 37.5, 2.5, 5
468, 40, 2.5, 5
469, 42.5, 2.5, 5
470, 45, 2.5, 5
471, 47.5, 2.5, 5
472, 50, 2.5, 5
473, 52.5, 2.5, 5
474, 55, 2.5, 5
475, 57.5, 2.5, 5
476, 60, 2.5, 5
477, 62.5, 2.5, 5
478, 65, 2.5, 5
479, 67.5, 2.5, 5
480, 70, 2.5, 5
481, 72.5, 2.5, 5
482, 75, 2.5, 5
483, 77.5, 2.5, 5
484, 80, 2.5, 5
485, 82.5, 2.5, 5
486, 85, 2.5, 5
487, 87.5, 2.5, 5
488, 90, 2.5, 5
489, 92.5, 2.5, 5
490, 95, 2.5, 5
491, 97.5, 2.5, 5
492, 100, 2.5, 5
493, 0, 5, 5
494, 2.5, 5, 5
495, 5, 5, 5
496, 7.5, 5, 5
497, 10, 5, 5
498, 12.5, 5, 5
499, 15, 5, 5
500, 17.5, 5, 5
501, 20, 5, 5
502, 22.5, 5, 5
503, 25, 5, 5
504, 27.5, 5, 5
505, 30, 5, 5
506, 32.5, 5, 5
507, 35, 5, 5
508, 37.5, 5, 5
509, 40, 5, 5
510, 42.5, 5, 5
511, 45, 5, 5
512, 47.5, 5, 5
513, 50, 5, 5
514, 52.5, 5, 5
515, 55, 5, 5
516, 57.5, 5, 5
517, 60, 5, 5
518, 62.5, 5, 5
519, 65, 5, 5
520, 67.5, 5, 5
521, 70, 5, 5
522, 72.5, 5, 5
523, 75, 5, 5
524, 77.5, 5, 5
525, 80, 5, 5
526, 82.5, 5, 5
527, 85, 5, 5
528, 87.5, 5, 5
529, 90, 5, 5
530, 92.5, 5, 5
531, 95, 5, 5
532, 97.5, 5, 5
533, 100, 5, 5
534, 0, 7.5, 5
535, 2.5, 7.5, 5
536, 5, 7.5, 5
537, 7.5, 7.5, 5
538, 10, 7.5, 5
539, 12.5, 7.5, 5
540, 15, 7.5, 5
541, 17.5, 7.5, 5
542, 20, 7.5, 5
543, 22.5, 7.5, 5
544, 25, 7.5, 5
545, 27.5, 7.5, 5
546, 30, 7.5, 5
547, 32.5, 7.5, 5
548, 35, 7.5, 5
549, 37.5, 7.5, 5
550, 40, 7.5, 5
551, 42.5, 7.5, 5
552, 45, 7.5, 5
553, 47.5, 7.5, 5
554, 50, 7.5, 5
555, 52.5, 7.5, 5
556, 55, 7.5, 5
557, 57.5, 7.5, 5
558, 60, 7.5, 5
559, 62.5, 7.5, 5
560, 65, 7.5, 5
561, 67.5, 7.5, 5
562, 70, 7.5, 5
563, 72.5, 7.5, 5
564, 75, 7.5, 5
565, 77.5, 7.5, 5
566, 80, 7.5, 5
567, 82.5, 7.5, 5
568, 85, 7.5, 5
569, 87.5, 7.5, 5
570, 90, 7.5, 5
571, 92.5, 7.5, 5
572, 95, 7.5, 5
573, 97.5, 7.5, 5
574, 100, 7.5, 5
575, 0, 10, 5
576, 2.5, 10, 5
577, 5, 10, 5
578, 7.5, 10, 5
579, 10, 10, 5
580, 12.5, 10, 5
581, 15, 10, 5
582, 17.5, 10, 5
583, 20, 10, 5
584, 22.5, 10, 5
585, 25, 10, 5
586, 27.5, 10, 5
587, 30, 10, 5
588, 32.5, 10, 5
589, 35, 10, 5
590, 37.5, 10, 5
591, 40, 10, 5
592, 42.5, 10, 5
593, 45, 10, 5
594, 47.5, 10, 5
595, 50, 10, 5
596, 52.5, 10, 5
597, 55, 10, 5
598, 57.5, 10, 5
599, 60, 10, 5
600, 62.5, 10, 5
601, 65, 10, 5
602, 67.5, 10, 5
603, 70, 10, 5
604, 72.5, 10, 5
605, 75, 10, 5
606, 77.5, 10, 5
607, 80, 10, 5
608, 82.5, 10, 5
609, 85, 10, 5
610, 87.5, 10, 5
611, 90, 10, 5
612, 92.5, 10, 5
613, 95, 10, 5
614, 97.5, 10, 5
615, 100, 10, 5
616, 0, 0, 7.5
617, 2.5, 0, 7.5
618, 5, 0, 7.5
619, 7.5, 0, 7.5
620, 10, 0, 7.5
621, 12.5, 0, 7.5
622, 15, 0, 7.5
623, 17.5, 0, 7.5
624, 20, 0, 7.5
625, 22.5, 0, 7.5
626, 25, 0, 7.5
627, 27.5, 0, 7.5
628, 30, 0, 7.5
629, 32.5, 0, 7.5
630, 35, 0, 7.5
631, 37.5, 0, 7.5
632, 40, 0, 7.5
633, 42.5, 0, 7.5
634, 45, 0, 7.5
635, 47.5, 0, 7.5
636, 50, 0, 7.5
637, 52.5, 0, 7.5
638, 55, 0, 7.5
639, 57.5, 0, 7.5
640, 60, 0, 7.5
641, 62.5, 0, 7.5
642, 65, 0, 7.5
643, 67.5, 0, 7.5
644, 70, 0, 7.5
645, 72.5, 0, 7.5
646, 75, 0, 7.5
647, 77.5, 0, 7.5
648, 80, 0, 7.5
649, 82.5, 0, 7.5
650, 85, 0, 7.5
651, 87.5, 0, 7.5
652, 90, 0, 7.5
653, 92.5, 0, 7.5
654, 95, 0, 7.5
655, 97.5, 0, 7.5
656, 100, 0, 7.5
657, 0, 2.5, 7.5
658, 2.5, 2.5, 7.5
659, 5, 2.5, 7.5
660, 7.5, 2.5, 7.5
661, 10, 2.5, 7.5
662, 12.5, 2.5, 7.5
663, 15, 2.5, 7.5
664, 17.5, 2.5, 7.5
665, 20, 2.5, 7.5
666, 22.5, 2.5, 7.5
667, 25, 2.5, 7.5
668, 27.5, 2.5, 7.5
669, 30, 2.5, 7.5
670, 32.5, 2.5, 7.5
671, 35, 2.5, 7.5
672, 37.5, 2.5, 7.5
673, 40, 2.5, 7.5
674, 42.5, 2.5, 7.5
675, 45, 2.5, 7.5
676, 47.5, 2.5, 7.5
677, 50, 2.5, 7.5
678, 52.5, 2.5, 7.5
679, 55, 2.5, 7.5
680, 57.5, 2.5, 7.5
681, 60, 2.5, 7.5
682, 62.5, 2.5, 7.5
683, 65, 2.5, 7.5
684, 67.5, 2.5, 7.5
685, 70, 2.5, 7.5
686, 72.5, 2.5, 7.5
687, 75, 2.5, 7.5
688, 77.5, 2.5, 7.5
689, 80, 2.5, 7.5
690, 82.5, 2.5, 7.5
691, 85, 2.5, 7.5
692, 87.5, 2.5, 7.5
693, 90, 2.5, 7.5
694, 92.5, 2.5, 7.5
695, 95, 2.5, 7.5
696, 97.5, 2.5, 7.5
697, 100, 2.5, 7.5
698, 0, 5, 7.5
699, 2.5, 5, 7.5
700, 5, 5, 7.5
701, 7.5, 5, 7.5
702, 10, 5, 7.5
703, 12.5, 5, 7.5
704, 15, 5, 7.5
705, 17.5, 5, 7.5
706, 20, 5, 7.5
707, 22.5, 5, 7.5
708, 25, 5, 7.5
709, 27.5, 5, 7.5
710, 30, 5, 7.5
711, 32.5, 5, 7.5
712, 35, 5, 7.5
713, 37.5, 5, 7.5
714, 40, 5, 7.5
715, 42.5, 5, 7.5
716, 45, 5, 7.5
717, 47.5, 5, 7.5
718, 50, 5, 7.5
719, 52.5, 5, 7.5
720, 55, 5, 7.5
721, 57.5, 5, 7.5
722, 60, 5, 7.5
723, 62.5, 5, 7.5
724, 65, 5, 7.5
725, 67.5, 5, 7.5
726, 70, 5, 7.5
727, 72.5, 5, 7.5
728, 75, 5, 7.5
729, 77.5, 5, 7.5
730, 80, 5, 7.5
731, 82.5, 5, 7.5
732, 85, 5, 7.5
733, 87.5, 5, 7.5
734, 90, 5, 7.5
735, 92.5, 5, 7.5
736, 95, 5, 7.5
737, 97.5, 5, 7.5
738, 100, 5, 7.5
739, 0, 7.5, 7.5
740, 2.5, 7.5, 7.5
741, 5, 7.5, 7.5
742, 7.5, 7.5, 7.5
743, 10, 7.5, 7.5
744, 12.5, 7.5, 7.5
745, 15, 7.5, 7.5
746, 17.5, 7.5, 7.5
747, 20, 7.5, 7.5
748, 22.5, 7.5, 7.5
749, 25, 7.5, 7.5
750, 27.5, 7.5, 7.5
751, 30, 7.5, 7.5
752, 32.5, 7.5, 7.5
753, 35, 7.5, 7.5
754, 37.5, 7.5, 7.5
755, 40, 7.5, 7.5
756, 42.5, 7.5, 7.5
757, 45, 7.5, 7.5
758, 47.5, 7.5, 7.5
759, 50, 7.5, 7.5
760, 52.5, 7.5, 7.5
761, 55, 7.5, 7.5
762, 57.5, 7.5, 7.5
763, 60, 7.5, 7.5
764, 62.5, 7.5, 7.5
765, 65, 7.5, 7.5
766, 67.5, 7.5, 7.5
767, 70, 7.5, 7.5
768, 72.5, 7.5, 7.5
769, 75, 7.5, 7.5
770, 77.5, 7.5, 7.5
771, 80, 7.5, 7.5
772, 82.5, 7.5, 7.5
773, 85, 7.5, 7.5
774, 87.5, 7.5, 7.5
775, 90, 7.5, 7.5
776, 92.5, 7.5, 7.5
777, 95, 7.5, 7.5
778, 97.5, 7.5, 7.5
779, 100, 7.5, 7.5
780, 0, 10, 7.5
781, 2.5, 10, 7.5
782, 5, 10, 7.5
783, 7.5, 10, 7.5
784, 10, 10, 7.5
785, 12.5, 10, 7.5
786, 15, 10, 7.5
787, 17.5, 10, 7.5
788, 20, 10, 7.5
789, 22.5, 10, 7.5
790, 25, 10, 7.5
791, 27.5, 10, 7.5
792, 30, 10, 7.5
793, 32.5, 10, 7.5
794, 35, 10, 7.5
795, 37.5, 10, 7.5
796, 40, 10, 7.5
797, 42.5, 10, 7.5
798, 45, 10, 7.5
799, 47.5, 10, 7.5
800, 50, 10, 7.5
801, 52.5, 10, 7.5
802, 55, 10, 7.5
803, 57.5, 10, 7.5
804, 60, 10, 7.5
805, 62.5, 10, 7.5
806, 65, 10, 7.5
807, 67.5, 10, 7.5
808, 70, 10, 7.5
809, 72.5, 10, 7.5
810, 75, 10, 7.5
811, 77.5, 10, 7.5
812, 80, 10, 7.5
813, 82.5, 10, 7.5
814, 85, 10, 7.5
815, 87.5, 10, 7.5
816, 90, 10, 7.5
817, 92.5, 10, 7.5
818, 95, 10, 7.5
819, 97.5, 10, 7.5
820, 100, 10, 7.5
821, 0, 0, 10
822, 2.5, 0, 10
823, 5, 0, 10
824, 7.5, 0, 10
825, 10, 0, 10
826, 12.5, 0, 10
827, 15, 0, 10
828, 17.5, 0, 10
829, 20, 0, 10
830, 22.5, 0, 10
831, 25, 0, 10
832, 27.5, 0, 10
833, 30, 0, 10
834, 32.5, 0, 10
835, 35, 0, 10
836, 37.5, 0, 10
837, 40, 0, 10
838, 42.5, 0, 10
839, 45, 0, 10
840, 47.5, 0, 10
841, 50, 0, 10
842, 52.5, 0, 10
843, 55, 0, 10
844, 57.5, 0, 10
845, 60, 0, 10
846, 62.5, 0, 10
847, 65, 0, 10
848, 67.5, 0, 10
849, 70, 0, 10
850, 72.5, 0, 10
851, 75, 0, 10
852, 77.5, 0, 10
853, 80, 0, 10
854, 82.5, 0, 10
855, 85, 0, 10
856, 87.5, 0, 10
857, 90, 0, 10
858, 92.5, 0, 10
859, 95, 0, 10
860, 97.5, 0, 10
861, 100, 0, 10
862, 0, 2.5, 10
863, 2.5, 2.5, 10
864, 5, 2.5, 10
865, 7.5, 2.5, 10
866, 10, 2.5, 10
867, 12.5, 2.5, 10
868, 15, 2.5, 10
869, 17.5, 2.5, 10
870, 20, 2.5, 10
871, 22.5, 2.5, 10
872, 25, 2.5, 10
873, 27.5, 2.5, 10
874, 30, 2.5, 10
875, 32.5, 2.5, 10
876, 35, 2.5, 10
877, 37.5, 2.5, 10
878, 40, 2.5, 10
879, 42.5, 2.5, 10
880, 45, 2.5, 10
881, 47.5, 2.5, 10
882, 50, 2.5, 10
883, 52.5, 2.5, 10
884, 55, 2.5, 10
885, 57.5, 2.5, 10
886, 60, 2.5, 10
887, 62.5, 2.5, 10
888, 65, 2.5, 10
889, 67.5, 2.5, 10
890, 70, 2.5, 10
891, 72.5, 2.5, 10
892, 75, 2.5, 10
893, 77.5, 2.5, 10
894, 80, 2.5, 10
895, 82.5, 2.5, 10
896, 85, 2.5, 10
897, 87.5, 2.5, 10
898, 90, 2.5, 10
899, 92.5, 2.5, 10
900, 95, 2.5, 10
901, 97.5, 2.5, 10
902, 100, 2.5, 10
903, 0, 5, 10
904, 2.5, 5, 10
905, 5, 5, 10
906, 7.5, 5, 10
907, 10, 5, 10
908, 12.5, 5, 10
909, 15, 5, 10
910, 17.5, 5, 10
911, 20, 5, 10
912, 22.5, 5, 10
913, 25, 5, 10
914, 27.5, 5, 10
915, 30, 5, 10
916, 32.5, 5, 10
917, 35, 5, 10
918, 37.5, 5, 10
919, 40, 5, 10
920, 42.5, 5, 10
921, 45, 5, 10
922, 47.5, 5, 10
923, 50, 5, 10
924, 52.5, 5, 10
925, 55, 5, 10
926, 57.5, 5, 10
927, 60, 5, 10
928, 62.5, 5, 10
929, 65, 5, 10
930, 67.5, 5, 10
931, 70, 5, 10
932, 72.5, 5, 10
933, 75, 5, 10
934, 77.5, 5, 10
935, 80, 5, 10
936, 82.5, 5, 10
937, 85, 5, 10
938, 87.5, 5, 10
939, 90, 5, 10
940, 92.5, 5, 10
941, 95, 5, 10
942, 97.5, 5, 10
943, 100, 5, 10
944, 0, 7.5, 10
945, 2.5, 7.5, 10
946, 5, 7.5, 10
947, 7.5, 7.5, 10
948, 10, 7.5, 10
949, 12.5, 7.5, 10
950, 15, 7.5, 10
951, 17.5, 7.5, 10
952, 20, 7.5, 10
953, 22.5, 7.5, 10
954, 25, 7.5, 10
955, 27.5, 7.5, 10
956, 30, 7.5, 10
957, 32.5, 7.5, 10
958, 35, 7.5, 10
959, 37.5, 7.5, 10
960, 40, 7.5, 10
961, 42.5, 7.5, 10
962, 45, 7.5, 10
963, 47.5, 7.5, 10
964, 50, 7.5, 10
965, 52.5, 7.5, 10
966, 55, 7.5, 10
967, 57.5, 7.5, 10
968, 60, 7.5, 10
969, 62.5, 7.5, 10
970, 65, 7.5, 10
971, 67.5, 7.5, 10
972, 70, 7.5, 10
973, 72.5, 7.5, 10
974, 75, 7.5, 10
975, 77.5, 7.5, 10
976, 80, 7.5, 10
977, 82.5, 7.5, 10
978, 85, 7.5, 10
979, 87.5, 7.5, 10
980, 90, 7.5, 10
981, 92.5, 7.5, 10
982, 95, 7.5, 10
983, 97.5, 7.5, 10
984, 100, 7.5, 10
985, 0, 10, 10
986, 2.5, 10, 10
987, 5, 10, 10
988, 7.5, 10, 10
989, 10, 10, 10
990, 12.5, 10, 10
991, 15, 10, 10
992, 17.5, 10, 10
993, 20, 10, 10
994, 22.5, 10, 10
995, 25, 10, 10
996, 27.5, 10, 10
997, 30, 10, 10
998, 32.5, 10, 10
999, 35, 10, 10
1000, 37.5, 10, 10
1001, 40, 10, 10
1002, 42.5, 10, 10
1003, 45, 10, 10
1004, 47.5, 10, 10
1005, 50, 10, 10
1006, 52.5, 10, 10
1007, 55, 10, 10
1008, 57.5, 10, 10
1009, 60, 10, 10
1010, 62.5, 10, 10
1011, 65, 10, 10
1012, 67.5, 10, 10
1013, 70, 10, 10
1014, 72.5, 10, 10
1015, 75, 10, 10
1016, 77.5, 10, 10
1017, 80, 10, 10
1018, 82.5, 10, 10
1019, 85, 10, 10
1020, 87.5, 10, 10
1021, 90, 10, 10
1022, 92.5, 10, 10
1023, 95, 10, 10
1024, 97.5, 10, 10
1025, 100, 10, 10
*Element, type=C3D8R, elset=HOST
1, 1, 2, 43, 42, 206, 207, 248, 247
2, 2, 3, 44, 43, 207, 208, 249, 248
3, 3, 4, 45, 44, 208, 209, 250, 249
4, 4, 5, 46, 45, 209, 210, 251, 250
5, 5, 6, 47, 46, 210, 211, 252, 251
6, 6, 7, 48, 47, 211, 212, 253, 252
7, 7, 8, 49, 48, 212, 213, 254, 253
8, 8, 9, 50, 49, 213, 214, 255, 254
9, 9, 10, 51, 50, 214, 215, 256, 255
10, 10, 11, 52, 51, 215, 216, 257, 256
11, 11, 12, 53, 52, 216, 217, 258, 257
12, 12, 13, 54, 53, 217, 218, 259, 258
13, 13, 14, 55, 54, 218, 219, 260, 259
14, 14, 15, 56, 55, 219, 220, 261, 260
15, 15, 16, 57, 56, 220, 221, 262, 261
16, 16, 17, 58, 57, 221, 222, 263, 262
17, 17, 18, 59, 58, 222, 223, 264, 263
18, 18, 19, 60, 59, 223, 224, 265, 264
19, 19, 20, 61, 60, 224, 225, 266, 265
20, 20, 21, 62, 61, 225, 226, 267, 266
21, 21, 22, 63, 62, 226, 227, 268, 267
22, 22, 23, 64, 63, 227, 228, 269, 268
23, 23, 24, 65, 64, 228, 229, 270, 269
24, 24, 25, 66, 65, 229, 230, 271, 270
25, 25, 26, 67, 66, 230, 231, 272, 271
26, 26, 27, 68, 67, 231, 232, 273, 272
27, 27, 28, 69, 68, 232, 233, 274, 273
28, 28, 29, 70, 69, 233, 234, 275, 274
29, 29, 30, 71, 70, 234, 235, 276, 275
30, 30, 31, 72, 71, 235, 236, 277, 276
31, 31, 32, 73, 72, 236, 237, 278, 277
32, 32, 33, 74, 73, 237, 238, 279, 278
33, 33, 34, 75, 74, 238, 239, 280, 279
34, 34, 35, 76, 75, 239, 240, 281, 280
35, 35, 36, 77, 76, 240, 241, 282, 281
36, 36, 37, 78, 77, 241, 242, 283, 282
37, 37, 38, 79, 78, 242, 243, 284, 283
38, 38, 39, 80, 79, 243, 244, 285, 284
39, 39, 40, 81, 80, 244, 245, 286, 285
40, 40, 41, 82, 81, 245, 246, 287, 286
41, 42, 43, 84, 83, 247, 248, 289, 288
42, 43, 44, 85, 84, 248, 249, 290, 289
43, 44, 45, 86, 85, 249, 250, 291, 290
44, 45, 46, 87, 86, 250, 251, 292, 291
45, 46, 47, 88, 87, 251, 252, 293, 292
46, 47, 48, 89, 88, 252, 253, 294, 293
47, 48, 49, 90, 89, 253, 254, 295, 294
48, 49, 50, 91, 90, 254, 255, 296, 295
49, 50, 51, 92, 91, 255, 256, 297, 296
50, 51, 52, 93, 92, 256, 257, 298, 297
51, 52, 53, 94, 93, 257, 258, 299, 298
52, 53, 54, 95, 94, 258, 259, 300, 299
53, 54, 55, 96, 95, 259, 260, 301, 300
54, 55, 56, 97, 96, 260, 261, 302, 301
55, 56, 57, 98, 97, 261, 262, 303, 302
56, 57, 58, 99, 98, 262, 263, 304, 303
57, 58, 59, 100, 99, 263, 264, 305, 304
58, 59, 60, 101, 100, 264, 265, 306, 305
59, 60, 61, 102, 101, 265, 266, 307, 306
60, 61, 62, 103, 102, 266, 267, 308, 307
61, 62, 63, 104, 103, 267, 268, 309, 308
62, 63, 64, 105, 104, 268, 269, 310, 309
63, 64, 65, 106, 105, 269, 270, 311, 310
64, 65, 66, 107, 106, 270, 271, 312, 311
65, 66, 67, 108, 107, 271, 272, 313, 312
66, 67, 68, 109, 108, 272, 273, 314, 313
67, 68, 69, 110, 109, 273, 274, 315, 314
68, 69, 70, 111, 110, 274, 275, 316, 315
69, 70, 71, 112, 111, 275, 276, 317, 316
70, 71, 72, 113, 112, 276, 277, 318, 317
71, 72, 73, 114, 113, 277, 278, 319, 318
72, 73, 74, 115, 114, 278, 279, 320, 319
73, 74, 75, 116, 115, 279, 280, 321, 320
74, 75, 76, 117, 116, 280, 281, 322, 321
75, 76, 77, 118, 117, 281, 282, 323, 322
76, 77, 78, 119, 118, 282, 283, 324, 323
77, 78, 79, 120, 119, 283, 284, 325, 324
78, 79, 80, 121, 120, 284, 285, 326, 325
79, 80, 81, 122, 121, 285, 286, 327, 326
80, 81, 82, 123, 122, 286, 287, 328, 327
81, 83, 84, 125, 124, 288, 289, 330, 329
82, 84, 85, 126, 125, 289, 290, 331, 330
83, 85, 86, 127, 126, 290, 291, 332, 331
84, 86, 87, 128, 127, 291, 292, 333, 332
85, 87, 88, 129, 128, 292, 293, 334, 333
86, 88, 89, 130, 129, 293, 294, 335, 334
87, 89, 90, 131, 130, 294, 295, 336, 335
88, 90, 91, 132, 131, 295, 296, 337, 336
89, 91, 92, 133, 132, 296, 297, 338, 337
90, 92, 93, 134, 133, 297, 298, 339, 338
91, 93, 94, 135, 134, 298, 299, 340, 339
92, 94, 95, 136, 135, 299, 300, 341, 340
93, 95, 96, 137, 136, 300, 301, 342, 341
94, 96, 97, 138, 137, 301, 302, 343, 342
95, 97, 98, 139, 138, 302, 303, 344, 343
96, 98, 99, 140, 139, 303, 304, 345, 344
97, 99, 100, 141, 140, 304, 305, 346, 345
98, 100, 101, 142, 141, 305, 306, 347, 346
99, 101, 102, 143, 142, 306, 307, 348, 347
100, 102, 103, 144, 143, 307, 308, 349, 348
101, 103, 104, 145, 144, 308, 309, 350, 349
102, 104, 105, 146, 145, 309, 310, 351, 350
103, 105, 106, 147, 146, 310, 311, 352, 351
104, 106, 107, 148, 147, 311, 312, 353, 352
105, 107, 108, 149, 148, 312, 313, 354, 353
106, 108, 109, 150, 149, 313, 314, 355, 354
107, 109, 110, 151, 150, 314, 315, 356, 355
108, 110, 111, 152, 151, 315, 316, 357, 356
109, 111, 112, 153, 152, 316, 317, 358, 357
110, 112, 113, 154, 153, 317, 318, 359, 358
111, 113, 114, 155, 154, 318, 319, 360, 359
112, 114, 115, 156, 155, 319, 320, 361, 360
113, 115, 116, 157, 156, 320, 321, 362, 361
114, 116, 117, 158, 157, 321, 322, 363, 362
115, 117, 118, 159, 158, 322, 323, 364, 363
116, 118, 119, 160, 159, 323, 324, 365, 364
117, 119, 120, 161, 160, 324, 325, 366, 365
118, 120, 121, 162, 161, 325, 326, 367, 366
119, 121, 122, 163, 162, 326, 327, 368, 367
120, 122, 123, 164, 163, 327, 328, 369, 368
121, 124, 125, 166, 165, 329, 330, 371, 370
122, 125, 126, 167, 166, 330, 331, 372, 371
123, 126, 127, 168, 167, 331, 332, 373, 372
124, 127, 128, 169, 168, 332, 333, 374, 373
125, 128, 129, 170, 169, 333, 334, 375, 374
126, 129, 130, 171, 170, 334, 335, 376, 375
127, 130, 131, 172, 171, 335, 336, 377, 376
128, 131, 132, 173, 172, 336, 337, 378, 377
129, 132, 133, 174, 173, 337, 338, 379, 378
130, 133, 134, 175, 174, 338, 339, 380, 379
131, 134, 135, 176, 175, 339, 340, 381, 380
132, 135, 136, 177, 176, 340, 341, 382, 381
133, 136, 137, 178, 177, 341, 342, 383, 382
134, 137, 138, 179, 178, 342, 343, 384, 383
135, 138, 139, 180, 179, 343, 344, 385, 384
136, 139, 140, 181, 180, 344, 345, 386, 385
137, 140, 141, 182, 181, 345, 346, 387, 386
138, 141, 142, 183, 182, 346, 347, 388, 387
139, 142, 143, 184, 183, 347, 348, 389, 388
140, 143, 144, 185, 184, 348, 349, 390, 389
141, 144, 145, 186, 185, 349, 350, 391, 390
142, 145, 146, 187, 186, 350, 351, 392, 391
143, 146, 147, 188, 187, 351, 352, 393, 392
144, 147, 148, 189, 188, 352, 353, 394, 393
145, 148, 149, 190, 189, 353, 354, 395, 394
146, 149, 150, 191, 190, 354, 355, 396, 395
147, 150, 151, 192, 191, 355, 356, 397, 396
148, 151, 152, 193, 192, 356, 357, 398, 397
149, 152, 153, 194, 193, 357, 358, 399, 398
150, 153, 154, 195, 194, 358, 359, 400, 399
151, 154, 155, 196, 195, 359, 360, 401, 400
152, 155, 156, 197, 196, 360, 361, 402, 401
153, 156, 157, 198, 197, 361, 362, 403, 402
154, 157, 158, 199, 198, 362, 363, 404, 403
155, 158, 159, 200, 199, 363, 364, 405, 404
156, 159, 160, 201, 200, 364, 365, 406, 405
157, 160, 161, 202, 201, 365, 366, 407, 406
158, 161, 162, 203, 202, 366, 367, 408, 407
159, 162, 163, 204, 203, 367, 368, 409, 408
160, 163, 164, 205, 204, 368, 369, 410, 409
161, 206, 207, 248, 247, 411, 412, 453, 452
162, 207, 208, 249, 248, 412, 413, 454, 453
163, 208, 209, 250, 249, 413, 414, 455, 454
164, 209, 210, 251, 250, 414, 415, 456, 455
165, 210, 211, 252, 251, 415, 416, 457, 456
166, 211, 212, 253, 252, 416, 417, 458, 457
167, 212, 213, 254, 253, 417, 418, 459, 458
168, 213, 214, 255, 254, 418, 419, 460, 459
169, 214, 215, 256, 255, 419, 420, 461, 460
170, 215, 216, 257, 256, 420, 421, 462, 461
171, 216, 217, 258, 257, 421, 422, 463, 462
172, 217, 218, 259, 258, 422, 423, 464, 463
173, 218, 219, 260, 259, 423, 424, 465, 464
174, 219, 220, 261, 260, 424, 425, 466, 465
175, 220, 221, 262, 261, 425, 426, 467, 466
176, 221, 222, 263, 262, 426, 427, 468, 467
177, 222, 223, 264, 263, 427, 428, 469, 468
178, 223, 224, 265, 264, 428, 429, 470, 469
179, 224, 225, 266, 265, 429, 430, 471, 470
180, 225, 226, 267, 266, 430, 431, 472, 471
181, 226, 227, 268, 267, 431, 432, 473, 472
182, 227, 228, 269, 268, 432, 433, 474, 473
183, 228, 229, 270, 269, 433, 434, 475, 474
184, 229, 230, 271, 270, 434, 435, 476, 475
185, 230, 231, 272, 271, 435, 436, 477, 476
186, 231, 232, 273, 272, 436, 437, 478, 477
187, 232, 233, 274, 273, 437, 438, 479, 478
188, 233, 234, 275, 274, 438, 439, 480, 479
189, 234, 235, 276, 275, 439, 440, 481, 480
190, 235, 236, 277, 276, 440, 441, 482, 481
191, 236, 237, 278, 277, 441, 442, 483, 482
192, 237, 238, 279, 278, 442, 443, 484, 483
193, 238, 239, 280, 279, 443, 444, 485, 484
194, 239, 240, 281, 280, 444, 445, 486, 485
195, 240, 241, 282, 281, 445, 446, 487, 486
196, 241, 242, 283, 282, 446, 447, 488, 487
197, 242, 243, 284, 283, 447, 448, 489, 488
198, 243, 244, 285, 284, 448, 449, 490, 489
199, 244, 245, 286, 285, 449, 450, 491, 490
200, 245, 246, 287, 286, 450, 451, 492, 491
201, 247, 248, 289, 288, 452, 453, 494, 493
202, 248, 249, 290, 289, 453, 454, 495, 494
203, 249, 250, 291, 290, 454, 455, 496, 495
204, 250, 251, 292, 291, 455, 456, 497, 496
205, 251, 252, 293, 292, 456, 457, 498, 497
206, 252, 253, 294, 293, 457, 458, 499, 498
207, 253, 254, 295, 294, 458, 459, 500, 499
208, 254, 255, 296, 295, 459, 460, 501, 500
209, 255, 256, 297, 296, 460, 461, 502, 501
210, 256, 257, 298, 297, 461, 462, 503, 502
211, 257, 258, 299, 298, 462, 463, 504, 503
212, 258, 259, 300, 299, 463, 464, 505, 504
213, 259, 260, 301, 300, 464, 465, 506, 505
214, 260, 261, 302, 301, 465, 466, 507, 506
215, 261, 262, 303, 302, 466, 467, 508, 507
216, 262, 263, 304, 303, 467, 468, 509, 508
217, 263, 264, 305, 304, 468, 469, 510, 509
218, 264, 265, 306, 305, 469, 470, 511, 510
219, 265, 266, 307, 306, 470, 471, 512, 511
220, 266, 267, 308, 307, 471, 472, 513, 512
221, 267, 268, 309, 308, 472, 473, 514, 513
222, 268, 269, 310, 309, 473, 474, 515, 514
223, 269, 270, 311, 310, 474, 475, 516, 515
224, 270, 271, 312, 311, 475, 476, 517, 516
225, 271, 272, 313, 312, 476, 477, 518, 517
226, 272, 273, 314, 313, 477, 478, 519, 518
227, 273, 274, 315, 314, 478, 479, 520, 519
228, 274, 275, 316, 315, 479, 480, 521, 520
229, 275, 276, 317, 316, 480, 481, 522, 521
230, 276, 277, 318, 317, 481, 482, 523, 522
231, 277, 278, 319, 318, 482, 483, 524, 523
232, 278, 279, 320, 319, 483, 484, 525, 524
233, 279, 280, 321, 320, 484, 485, 526, 525
234, 280, 281, 322, 321, 485, 486, 527, 526
235, 281, 282, 323, 322, 486, 487, 528, 527
236, 282, 283, 324, 323, 487, 488, 529, 528
237, 283, 284, 325, 324, 488, 489, 530, 529
238, 284, 285, 326, 325, 489, 490, 531, 530
239, 285, 286, 327, 326, 490, 491, 532, 531
240, 286, 287, 328, 327, 491, 492, 533, 532
241, 288, 289, 330, 329, 493, 494, 535, 534
242, 289, 290, 331, 330, 494, 495, 536, 535
243, 290, 291, 332, 331, 495, 496, 537, 536
244, 291, 292, 333, 332, 496, 497, 538, 537
245, 292, 293, 334, 333, 497, 498, 539, 538
246, 293, 294, 335, 334, 498, 499, 540, 539
247, 294, 295, 336, 335, 499, 500, 541, 540
248, 295, 296, 337, 336, 500, 501, 542, 541
249, 296, 297, 338, 337, 501, 502, 543, 542
250, 297, 298, 339, 338, 502, 503, 544, 543
251, 298, 299, 340, 339, 503, 504, 545, 544
252, 299, 300, 341, 340, 504, 505, 546, 545
253, 300, 301, 342, 341, 505, 506, 547, 546
254, 301, 302, 343, 342, 506, 507, 548, 547
255, 302, 303, 344, 343, 507, 508, 549, 548
256, 303, 304, 345, 344, 508, 509, 550, 549
257, 304, 305, 346, 345, 509, 510, 551, 550
258, 305, 306, 347, 346, 510, 511, 552, 551
259, 306, 307, 348, 347, 511, 512, 553, 552
260, 307, 308, 349, 348, 512, 513, 554, 553
261, 308, 309, 350, 349, 513, 514, 555, 554
262, 309, 310, 351, 350, 514, 515, 556, 555
263, 310, 311, 352, 351, 515, 516, 557, 556
264, 311, 312, 353, 352, 516, 517, 558, 557
265, 312, 313, 354, 353, 517, 518, 559, 558
266, 313, 314, 355, 354, 518, 519, 560, 559
267, 314, 315, 356, 355, 519, 520, 561, 560
268, 315, 316, 357, 356, 520, 521, 562, 561
269, 316, 317, 358, 357, 521, 522, 563, 562
270, 317, 318, 359, 358, 522, 523, 564, 563
271, 318, 319, 360, 359, 523, 524, 565, 564
272, 319, 320, 361, 360, 524, 525, 566, 565
273, 320, 321, 362, 361, 525, 526, 567, 566
274, 321, 322, 363, 362, 526, 527, 568, 567
275, 322, 323, 364, 363, 527, 528, 569, 568
276, 323, 324, 365, 364, 528, 529, 570, 569
277, 324, 325, 366, 365, 529, 530, 571, 570
278, 325, 326, 367, 366, 530, 531, 572, 571
279, 326, 327, 368, 367, 531, 532, 573, 572
280, 327, 328, 369, 368, 532, 533, 574, 573
281, 329, 330, 371, 370, 534, 535, 576, 575
282, 330, 331, 372, 371, 535, 536, 577, 576
283, 331, 332, 373, 372, 536, 537, 578, 577
284, 332, 333, 374, 373, 537, 538, 579, 578
285, 333, 334, 375, 374, 538, 539, 580, 579
286, 334, 335, 376, 375, 539, 540, 581, 580
287, 335, 336, 377, 376, 540, 541, 582, 581
288, 336, 337, 378, 377, 541, 542, 583, 582
289, 337, 338, 379, 378, 542, 543, 584, 583
290, 338, 339, 380, 379, 543, 544, 585, 584
291, 339, 340, 381, 380, 544, 545, 586, 585
292, 340, 341, 382, 381, 545, 546, 587, 586
293, 341, 342, 383, 382, 546, 547, 588, 587
294, 342, 343, 384, 383, 547, 548, 589, 588
295, 343, 344, 385, 384, 548, 549, 590, 589
296, 344, 345, 386, 385, 549, 550, 591, 590
297, 345, 346, 387, 386, 550, 551, 592, 591
298, 346, 347, 388, 387, 551, 552, 593, 592
299, 347, 348, 389, 388, 552, 553, 594, 593
300, 348, 349, 390, 389, 553, 554, 595, 594
301, 349, 350, 391, 390, 554, 555, 596, 595
302, 350, 351, 392, 391, 555, 556, 597, 596
303, 351, 352, 393, 392, 556, 557, 598, 597
304, 352, 353, 394, 393, 557, 558, 599, 598
305, 353, 354, 395, 394, 558, 559, 600, 599
306, 354, 355, 396, 395, 559, 560, 601, 600
307, 355, 356, 397, 396, 560, 561, 602, 601
308, 356, 357, 398, 397, 561, 562, 603, 602
309, 357, 358, 399, 398, 562, 563, 604, 603
310, 358, 359, 400, 399, 563, 564, 605, 604
311, 359, 360, 401, 400, 564, 565, 606, 605
312, 360, 361, 402, 401, 565, 566, 607, 606
313, 361, 362, 403, 402, 566, 567, 608, 607
314, 362, 363, 404, 403, 567, 568, 609, 608
315, 363, 364, 405, 404, 568, 569, 610, 609
316, 364, 365, 406, 405, 569, 570, 611, 610
317, 365, 366, 407, 406, 570, 571, 612, 611
318, 366, 367, 408, 407, 571, 572, 613, 612
319, 367, 368, 409, 408, 572, 573, 614, 613
320, 368, 369, 410, 409, 573, 574, 615, 614
321, 411, 412, 453, 452, 616, 617, 658, 657
322, 412, 413, 454, 453, 617, 618, 659, 658
323, 413, 414, 455, 454, 618, 619, 660, 659
324, 414, 415, 456, 455, 619, 620, 661, 660
325, 415, 416, 457, 456, 620, 621, 662, 661
326, 416, 417, 458, 457, 621, 622, 663, 662
327, 417, 418, 459, 458, 622, 623, 664, 663
328, 418, 419, 460, 459, 623, 624, 665, 664
329, 419, 420, 461, 460, 624, 625, 666, 665
330, 420, 421, 462, 461, 625, 626, 667, 666
331, 421, 422, 463, 462, 626, 627, 668, 667
332, 422, 423, 464, 463, 627, 628, 669, 668
333, 423, 424, 465, 464, 628, 629, 670, 669
334, 424, 425, 466, 465, 629, 630, 671, 670
335, 425, 426, 467, 466, 630, 631, 672, 671
336, 426, 427, 468, 467, 631, 632, 673, 672
337, 427, 428, 469, 468, 632, 633, 674, 673
338, 428, 429, 470, 469, 633, 634, 675, 674
339, 429, 430, 471, 470, 634, 635, 676, 675
340, 430, 431, 472, 471, 635, 636, 677, 676
341, 431, 432, 473, 472, 636, 637, 678, 677
342, 432, 433, 474, 473, 637, 638, 679, 678
343, 433, 434, 475, 474, 638, 639, 680, 679
344, 434, 435, 476, 475, 639, 640, 681, 680
345, 435, 436, 477, 476, 640, 641, 682, 681
346, 436, 437, 478, 477, 641, 642, 683, 682
347, 437, 438, 479, 478, 642, 643, 684, 683
348, 438, 439, 480, 479, 643, 644, 685, 684
349, 439, 440, 481, 480, 644, 645, 686, 685
350, 440, 441, 482, 481, 645, 646, 687, 686
351, 441, 442, 483, 482, 646, 647, 688, 687
352, 442, 443, 484, 483, 647, 648, 689, 688
353, 443, 444, 485, 484, 648, 649, 690, 689
354, 444, 445, 486, 485, 649, 650, 691, 690
355, 445, 446, 487, 486, 650, 651, 692, 691
356, 446, 447, 488, 487, 651, 652, 693, 692
357, 447, 448, 489, 488, 652, 653, 694, 693
358, 448, 449, 490, 489, 653, 654, 695, 694
359, 449, 450, 491, 490, 654, 655, 696, 695
360, 450, 451, 492, 491, 655, 656, 697, 696
361, 452, 453, 494, 493, 657, 658, 699, 698
362, 453, 454, 495, 494, 658, 659, 700, 699
363, 454, 455, 496, 495, 659, 660, 701, 700
364, 455, 456, 497, 496, 660, 661, 702, 701
365, 456, 457, 498, 497, 661, 662, 703, 702
366, 457, 458, 499, 498, 662, 663, 704, 703
367, 458, 459, 500, 499, 663, 664, 705, 704
368, 459, 460, 501, 500, 664, 665, 706, 705
369, 460, 461, 502, 501, 665, 666, 707, 706
370, 461, 462, 503, 502, 666, 667, 708, 707
371, 462, 463, 504, 503, 667, 668, 709, 708
372, 463, 464, 505, 504, 668, 669, 710, 709
373, 464, 465, 506, 505, 669, 670, 711, 710
374, 465, 466, 507, 506, 670, 671, 712, 711
375, 466, 467, 508, 507, 671, 672, 713, 712
376, 467, 468, 509, 508, 672, 673, 714, 713
377, 468, 469, 510, 509, 673, 674, 715, 714
378, 469, 470, 511, 510, 674, 675, 716, 715
379, 470, 471, 512, 511, 675, 676, 717, 716
380, 471, 472, 513, 512, 676, 677, 718, 717
381, 472, 473, 514, 513, 677, 678, 719, 718
382, 473, 474, 515, 514, 678, 679, 720, 719
383, 474, 475, 516, 515, 679, 680, 721, 720
384, 475, 476, 517, 516, 680, 681, 722, 721
385, 476, 477, 518, 517, 681, 682, 723, 722
386, 477, 478, 519, 518, 682, 683, 724, 723
387, 478, 479, 520, 519, 683, 684, 725, 724
388, 479, 480, 521, 520, 684, 685, 726, 725
389, 480, 481, 522, 521, 685, 686, 727, 726
390, 481, 482, 523, 522, 686, 687, 728, 727
391, 482, 483, 524, 523, 687, 688, 729, 728
392, 483, 484, 525, 524, 688, 689, 730, 729
393, 484, 485, 526, 525, 689, 690, 731, 730
394, 485, 486, 527, 526, 690, 691, 732, 731
395, 486, 487, 528, 527, 691, 692, 733, 732
396, 487, 488, 529, 528, 692, 693, 734, 733
397, 488, 489, 530, 529, 693, 694, 735, 734
398, 489, 490, 531, 530, 694, 695, 736, 735
399, 490, 491, 532, 531, 695, 696, 737, 736
400, 491, 492, 533, 532, 696, 697, 738, 737
401, 493, 494, 535, 534, 698, 699, 740, 739
402, 494, 495, 536, 535, 699, 700, 741, 740
403, 495, 496, 537, 536, 700, 701, 742, 741
404, 496, 497, 538, 537, 701, 702, 743, 742
405, 497, 498, 539, 538, 702, 703, 744, 743
406, 498, 499, 540, 539, 703, 704, 745, 744
407, 499, 500, 541, 540, 704, 705, 746, 745
408, 500, 501, 542, 541, 705, 706, 747, 746
409, 501, 502, 543, 542, 706, 707, 748, 747
410, 502, 503, 544, 543, 707, 708, 749, 748
411, 503, 504, 545, 544, 708, 709, 750, 749
412, 504, 505, 546, 545, 709, 710, 751, 750
413, 505, 506, 547, 546, 710, 711, 752, 751
414, 506, 507, 548, 547, 711, 712, 753, 752
415, 507, 508, 549, 548, 712, 713, 754, 753
416, 508, 509, 550, 549, 713, 714, 755, 754
417, 509, 510, 551, 550, 714, 715, 756, 755
418, 510, 511, 552, 551, 715, 716, 757, 756
419, 511, 512, 553, 552, 716, 717, 758, 757
420, 512, 513, 554, 553, 717, 718, 759, 758
421, 513, 514, 555, 554, 718, 719, 760, 759
422, 514, 515, 556, 555, 719, 720, 761, 760
423, 515, 516, 557, 556, 720, 721, 762, 761
424, 516, 517, 558, 557, 721, 722, 763, 762
425, 517, 518, 559, 558, 722, 723, 764, 763
426, 518, 519, 560, 559, 723, 724, 765, 764
427, 519, 520, 561, 560, 724, 725, 766, 765
428, 520, 521, 562, 561, 725, 726, 767, 766
429, 521, 522, 563, 562, 726, 727, 768, 767
430, 522, 523, 564, 563, 727, 728, 769, 768
431, 523, 524, 565, 564, 728, 729, 770, 769
432, 524, 525, 566, 565, 729, 730, 771, 770
433, 525, 526, 567, 566, 730, 731, 772, 771
434, 526, 527, 568, 567, 731, 732, 773, 772
435, 527, 528, 569, 568, 732, 733, 774, 773
436, 528, 529, 570, 569, 733, 734, 775, 774
437, 529, 530, 571, 570, 734, 735, 776, 775
438, 530, 531, 572, 571, 735, 736, 777, 776
439, 531, 532, 573, 572, 736, 737, 778, 777
440, 532, 533, 574, 573, 737, 738, 779, 778
441, 534, 535, 576, 575, 739, 740, 781, 780
442, 535, 536, 577, 576, 740, 741, 782, 781
443, 536, 537, 578, 577, 741, 742, 783, 782
444, 537, 538, 579, 578, 742, 743, 784, 783
445, 538, 539, 580, 579, 743, 744, 785, 784
446, 539, 540, 581, 580, 744, 745, 786, 785
447, 540, 541, 582, 581, 745, 746, 787, 786
448, 541, 542, 583, 582, 746, 747, 788, 787
449, 542, 543, 584, 583, 747, 748, 789, 788
450, 543, 544, 585, 584, 748, 749, 790, 789
451, 544, 545, 586, 585, 749, 750, 791, 790
452, 545, 546, 587, 586, 750, 751, 792, 791
453, 546, 547, 588, 587, 751, 752, 793, 792
454, 547, 548, 589, 588, 752, 753, 794, 793
455, 548, 549, 590, 589, 753, 754, 795, 794
456, 549, 550, 591, 590, 754, 755, 796, 795
457, 550, 551, 592, 591, 755, 756, 797, 796
458, 551, 552, 593, 592, 756, 757, 798, 797
459, 552, 553, 594, 593, 757, 758, 799, 798
460, 553, 554, 595, 594, 758, 759, 800, 799
461, 554, 555, 596, 595, 759, 760, 801, 800
462, 555, 556, 597, 596, 760, 761, 802, 801
463, 556, 557, 598, 597, 761, 762, 803, 802
464, 557, 558, 599, 598, 762, 763, 804, 803
465, 558, 559, 600, 599, 763, 764, 805, 804
466, 559, 560, 601, 600, 764, 765, 806, 805
467, 560, 561, 602, 601, 765, 766, 807, 806
468, 561, 562, 603, 602, 766, 767, 808, 807
469, 562, 563, 604, 603, 767, 768, 809, 808
470, 563, 564, 605, 604, 768, 769, 810, 809
471, 564, 565, 606, 605, 769, 770, 811, 810
472, 565, 566, 607, 606, 770, 771, 812, 811
473, 566, 567, 608, 607, 771, 772, 813, 812
474, 567, 568, 609, 608, 772, 773, 814, 813
475, 568, 569, 610, 609, 773, 774, 815, 814
476, 569, 570, 611, 610, 774, 775, 816, 815
477, 570, 571, 612, 611, 775, 776, 817, 816
478, 571, 572, 613, 612, 776, 777, 818, 817
479, 572, 573, 614, 613, 777, 778, 819, 818
480, 573, 574, 615, 614, 778, 779, 820, 819
481, 616, 617, 658, 657, 821, 822, 863, 862
482, 617, 618, 659, 658, 822, 823, 864, 863
483, 618, 619, 660, 659, 823, 824, 865, 864
484, 619, 620, 661, 660, 824, 825, 866, 865
485, 620, 621, 662, 661, 825, 826, 867, 866
486, 621, 622, 663, 662, 826, 827, 868, 867
487, 622, 623, 664, 663, 827, 828, 869, 868
488, 623, 624, 665, 664, 828, 829, 870, 869
489, 624, 625, 666, 665, 829, 830, 871, 870
490, 625, 626, 667, 666, 830, 831, 872, 871
491, 626, 627, 668, 667, 831, 832, 873, 872
492, 627, 628, 669, 668, 832, 833, 874, 873
493, 628, 629, 670, 669, 833, 834, 875, 874
494, 629, 630, 671, 670, 834, 835, 876, 875
495, 630, 631, 672, 671, 835, 836, 877, 876
496, 631, 632, 673, 672, 836, 837, 878, 877
497, 632, 633, 674, 673, 837, 838, 879, 878
498, 633, 634, 675, 674, 838, 839, 880, 879
499, 634, 635, 676, 675, 839, 840, 881, 880
500, 635, 636, 677, 676, 840, 841, 882, 881
501, 636, 637, 678, 677, 841, 842, 883, 882
502, 637, 638, 679, 678, 842, 843, 884, 883
503, 638, 639, 680, 679, 843, 844, 885, 884
504, 639, 640, 681, 680, 844, 845, 886, 885
505, 640, 641, 682, 681, 845, 846, 887, 886
506, 641, 642, 683, 682, 846, 847, 888, 887
507, 642, 643, 684, 683, 847, 848, 889, 888
508, 643, 644, 685, 684, 848, 849, 890, 889
509, 644, 645, 686, 685, 849, 850, 891, 890
510, 645, 646, 687, 686, 850, 851, 892, 891
511, 646, 647, 688, 687, 851, 852, 893, 892
512, 647, 648, 689, 688, 852, 853, 894, 893
513, 648, 649, 690, 689, 853, 854, 895, 894
514, 649, 650, 691, 690, 854, 855, 896, 895
515, 650, 651, 692, 691, 855, 856, 897, 896
516, 651, 652, 693, 692, 856, 857, 898, 897
517, 652, 653, 694, 693, 857, 858, 899, 898
518, 653, 654, 695, 694, 858, 859, 900, 899
519, 654, 655, 696, 695, 859, 860, 901, 900
520, 655, 656, 697, 696, 860, 861, 902, 901
521, 657, 658, 699, 698, 862, 863, 904, 903
522, 658, 659, 700, 699, 863, 864, 905, 904
523, 659, 660, 701, 700, 864, 865, 906, 905
524, 660, 661, 702, 701, 865, 866, 907, 906
525, 661, 662, 703, 702, 866, 867, 908, 907
526, 662, 663, 704, 703, 867, 868, 909, 908
527, 663, 664, 705, 704, 868, 869, 910, 909
528, 664, 665, 706, 705, 869, 870, 911, 910
529, 665, 666, 707, 706, 870, 871, 912, 911
530, 666, 667, 708, 707, 871, 872, 913, 912
531, 667, 668, 709, 708, 872, 873, 914, 913
532, 668, 669, 710, 709, 873, 874, 915, 914
533, 669, 670, 711, 710, 874, 875, 916, 915
534, 670, 671, 712, 711, 875, 876, 917, 916
535, 671, 672, 713, 712, 876, 877, 918, 917
536, 672, 673, 714, 713, 877, 878, 919, 918
537, 673, 674, 715, 714, 878, 879, 920, 919
538, 674, 675, 716, 715, 879, 880, 921, 920
539, 675, 676, 717, 716, 880, 881, 922, 921
540, 676, 677, 718, 717, 881, 882, 923, 922
541, 677, 678, 719, 718, 882, 883, 924, 923
542, 678, 679, 720, 719, 883, 884, 925, 924
543, 679, 680, 721, 720, 884, 885, 926, 925
544, 680, 681, 722, 721, 885, 886, 927, 926
545, 681, 682, 723, 722, 886, 887, 928, 927
546, 682, 683, 724, 723, 887, 888, 929, 928
547, 683, 684, 725, 724, 888, 889, 930, 929
548, 684, 685, 726, 725, 889, 890, 931, 930
549, 685, 686, 727, 726, 890, 891, 932, 931
550, 686, 687, 728, 727, 891, 892, 933, 932
551, 687, 688, 729, 728, 892, 893, 934, 933
552, 688, 689, 730, 729, 893, 894, 935, 934
553, 689, 690, 731, 730, 894, 895, 936, 935
554, 690, 691, 732, 731, 895, 896, 937, 936
555, 691, 692, 733, 732, 896, 897, 938, 937
556, 692, 693, 734, 733, 897, 898, 939, 938
557, 693, 694, 735, 734, 898, 899, 940, 939
558, 694, 695, 736, 735, 899, 900, 941, 940
559, 695, 696, 737, 736, 900, 901, 942, 941
560, 696, 697, 738, 737, 901, 902, 943, 942
561, 698, 699, 740, 739, 903, 904, 945, 944
562, 699, 700, 741, 740, 904, 905, 946, 945
563, 700, 701, 742, 741, 905, 906, 947, 946
564, 701, 702, 743, 742, 906, 907, 948, 947
565, 702, 703, 744, 743, 907, 908, 949, 948
566, 703, 704, 745, 744, 908, 909, 950, 949
567, 704, 705, 746, 745, 909, 910, 951, 950
568, 705, 706, 747, 746, 910, 911, 952, 951
569, 706, 707, 748, 747, 911, 912, 953, 952
570, 707, 708, 749, 748, 912, 913, 954, 953
571, 708, 709, 750, 749, 913, 914, 955, 954
572, 709, 710, 751, 750, 914, 915, 956, 955
573, 710, 711, 752, 751, 915, 916, 957, 956
574, 711, 712, 753, 752, 916, 917, 958, 957
575, 712, 713, 754, 753, 917, 918, 959, 958
576, 713, 714, 755, 754, 918, 919, 960, 959
577, 714, 715, 756, 755, 919, 920, 961, 960
578, 715, 716, 757, 756, 920, 921, 962, 961
579, 716, 717, 758, 757, 921, 922, 963, 962
580, 717, 718, 759, 758, 922, 923, 964, 963
581, 718, 719, 760, 759, 923, 924, 965, 964
582, 719, 720, 761, 760, 924, 925, 966, 965
583, 720, 721, 762, 761, 925, 926, 967, 966
584, 721, 722, 763, 762, 926, 927, 968, 967
585, 722, 723, 764, 763, 927, 928, 969, 968
586, 723, 724, 765, 764, 928, 929, 970, 969
587, 724, 725, 766, 765, 929, 930, 971, 970
588, 725, 726, 767, 766, 930, 931, 972, 971
589, 726, 727, 768, 767, 931, 932, 973, 972
590, 727, 728, 769, 768, 932, 933, 974, 973
591, 728, 729, 770, 769, 933, 934, 975, 974
592, 729, 730, 771, 770, 934, 935, 976, 975
593, 730, 731, 772, 771, 935, 936, 977, 976
594, 731, 732, 773, 772, 936, 937, 978, 977
595, 732, 733, 774, 773, 937, 938, 979, 978
596, 733, 734, 775, 774, 938, 939, 980, 979
597, 734, 735, 776, 775, 939, 940, 981, 980
598, 735, 736, 777, 776, 940, 941, 982, 981
599, 736, 737, 778, 777, 941, 942, 983, 982
600, 737, 738, 779, 778, 942, 943, 984, 983
601, 739, 740, 781, 780, 944, 945, 986, 985
602, 740, 741, 782, 781, 945, 946, 987, 986
603, 741, 742, 783, 782, 946, 947, 988, 987
604, 742, 743, 784, 783, 947, 948, 989, 988
605, 743, 744, 785, 784, 948, 949, 990, 989
606, 744, 745, 786, 785, 949, 950, 991, 990
607, 745, 746, 787, 786, 950, 951, 992, 991
608, 746, 747, 788, 787, 951, 952, 993, 992
609, 747, 748, 789, 788, 952, 953, 994, 993
610, 748, 749, 790, 789, 953, 954, 995, 994
611, 749, 750, 791, 790, 954, 955, 996, 995
612, 750, 751, 792, 791, 955, 956, 997, 996
613, 751, 752, 793, 792, 956, 957, 998, 997
614, 752, 753, 794, 793, 957, 958, 999, 998
615, 753, 754, 795, 794, 958, 959, 1000, 999
616, 754, 755, 796, 795, 959, 960, 1001, 1000
617, 755, 756, 797, 796, 960, 961, 1002, 1001
618, 756, 757, 798, 797, 961, 962, 1003, 1002
619, 757, 758, 799, 798, 962, 963, 1004, 1003
620, 758, 759, 800, 799, 963, 964, 1005, 1004
621, 759, 760, 801, 800, 964, 965, 1006, 1005
622, 760, 761, 802, 801, 965, 966, 1007, 1006
623, 761, 762, 803, 802, 966, 967, 1008, 1007
624, 762, 763, 804, 803, 967, 968, 1009, 1008
625, 763, 764, 805, 804, 968, 969, 1010, 1009
626, 764, 765, 806, 805, 969, 970, 1011, 1010
627, 765, 766, 807, 806, 970, 971, 1012, 1011
628, 766, 767, 808, 807, 971, 972, 1013, 1012
629, 767, 768, 809, 808, 972, 973, 1014, 1013
630, 768, 769, 810, 809, 973, 974, 1015, 1014
631, 769, 770, 811, 810, 974, 975, 1016, 1015
632, 770, 771, 812, 811, 975, 976, 1017, 1016
633, 771, 772, 813, 812, 976, 977, 1018, 1017
634, 772, 773, 814, 813, 977, 978, 1019, 1018
635, 773, 774, 815, 814, 978, 979, 1020, 1019
636, 774, 775, 816, 815, 979, 980, 1021, 1020
637, 775, 776, 817, 816, 980, 981, 1022, 1021
638, 776, 777, 818, 817, 981, 982, 1023, 1022
639, 777, 778, 819, 818, 982, 983, 1024, 1023
640, 778, 779, 820, 819, 983, 984, 1025, 1024
*Solid Section, elset=HOST, material=MATRIX
,
*End Part
*Part, name=EMBFIB
** embmesh generated fibers
*Node, nset=EMBMESH_NODES
100000, 0, 13.5857864376, 5
100001, 100, 13.5857864376, 5
100002, 0, 12.1715728753, 6.41421356237
100003, 100, 12.1715728753, 6.41421356237
100004, 0, 10.7573593129, 7.82842712475
100005, 100, 10.7573593129, 7.82842712475
100006, 0, 9.34314575051, 9.24264068712
100007, 100, 9.34314575051, 9.24264068712
100008, 0, 7.92893218813, 10.6568542495
100009, 100, 7.92893218813, 10.6568542495
100010, 0, 6.51471862576, 12.0710678119
100011, 100, 6.51471862576, 12.0710678119
100012, 0, 5.10050506339, 13.4852813742
100013, 100, 5.10050506339, 13.4852813742
100014, 1, 12.8786796564, 2.87867965644
100015, 1, 2.87867965644, 12.8786796564
100016, 3, 12.8786796564, 2.87867965644
100017, 3, 2.87867965644, 12.8786796564
100018, 5, 12.8786796564, 2.87867965644
100019, 5, 2.87867965644, 12.8786796564
100020, 7, 12.8786796564, 2.87867965644
100021, 7, 2.87867965644, 12.8786796564
100022, 9, 12.8786796564, 2.87867965644
100023, 9, 2.87867965644, 12.8786796564
100024, 11, 12.8786796564, 2.87867965644
100025, 11, 2.87867965644, 12.8786796564
100026, 13, 12.8786796564, 2.87867965644
100027, 13, 2.87867965644, 12.8786796564
100028, 15, 12.8786796564, 2.87867965644
100029, 15, 2.87867965644, 12.8786796564
100030, 17, 12.8786796564, 2.87867965644
100031, 17, 2.87867965644, 12.8786796564
100032, 19, 12.8786796564, 2.87867965644
100033, 19, 2.87867965644, 12.8786796564
100034, 21, 12.8786796564, 2.87867965644
100035, 21, 2.87867965644, 12.8786796564
100036, 23, 12.8786796564, 2.87867965644
100037, 23, 2.87867965644, 12.8786796564
100038, 25, 12.8786796564, 2.87867965644
100039, 25, 2.87867965644, 12.8786796564
100040, 27, 12.8786796564, 2.87867965644
100041, 27, 2.87867965644, 12.8786796564
100042, 29, 12.8786796564, 2.87867965644
100043, 29, 2.87867965644, 12.8786796564
100044, 31, 12.8786796564, 2.87867965644
100045, 31, 2.87867965644, 12.8786796564
100046, 33, 12.8786796564, 2.87867965644
100047, 33, 2.87867965644, 12.8786796564
100048, 35, 12.8786796564, 2.87867965644
100049, 35, 2.87867965644, 12.8786796564
100050, 37, 12.8786796564, 2.87867965644
100051, 37, 2.87867965644, 12.8786796564
100052, 39, 12.8786796564, 2.87867965644
100053, 39, 2.87867965644, 12.8786796564
100054, 41, 12.8786796564, 2.87867965644
100055, 41, 2.87867965644, 12.8786796564
100056, 43, 12.8786796564, 2.87867965644
100057, 43, 2.87867965644, 12.8786796564
100058, 45, 12.8786796564, 2.87867965644
100059, 45, 2.87867965644, 12.8786796564
100060, 47, 12.8786796564, 2.87867965644
100061, 47, 2.87867965644, 12.8786796564
100062, 49, 12.8786796564, 2.87867965644
100063, 49, 2.87867965644, 12.8786796564
100064, 51, 12.8786796564, 2.87867965644
100065, 51, 2.87867965644, 12.8786796564
100066, 53, 12.8786796564, 2.87867965644
100067, 53, 2.87867965644, 12.8786796564
100068, 55, 12.8786796564, 2.87867965644
100069, 55, 2.87867965644, 12.8786796564
100070, 57, 12.8786796564, 2.87867965644
100071, 57, 2.87867965644, 12.8786796564
100072, 59, 12.8786796564, 2.87867965644
100073, 59, 2.87867965644, 12.8786796564
100074, 61, 12.8786796564, 2.87867965644
100075, 61, 2.87867965644, 12.8786796564
100076, 63, 12.8786796564, 2.87867965644
100077, 63, 2.87867965644, 12.8786796564
100078, 65, 12.8786796564, 2.87867965644
100079, 65, 2.87867965644, 12.8786796564
100080, 67, 12.8786796564, 2.87867965644
100081, 67, 2.87867965644, 12.8786796564
100082, 69, 12.8786796564, 2.87867965644
100083, 69, 2.87867965644, 12.8786796564
100084, 71, 12.8786796564, 2.87867965644
100085, 71, 2.87867965644, 12.8786796564
100086, 73, 12.8786796564, 2.87867965644
100087, 73, 2.87867965644, 12.8786796564
100088, 75, 12.8786796564, 2.87867965644
100089, 75, 2.87867965644, 12.8786796564
100090, 77, 12.8786796564, 2.87867965644
100091, 77, 2.87867965644, 12.8786796564
100092, 79, 12.8786796564, 2.87867965644
100093, 79, 2.87867965644, 12.8786796564
100094, 81, 12.8786796564, 2.87867965644
100095, 81, 2.87867965644, 12.8786796564
100096, 83, 12.8786796564, 2.87867965644
100097, 83, 2.87867965644, 12.8786796564
100098, 85, 12.8786796564, 2.87867965644
100099, 85, 2.87867965644, 12.8786796564
100100, 87, 12.8786796564, 2.87867965644
100101, 87, 2.87867965644, 12.8786796564
100102, 89, 12.8786796564, 2.87867965644
100103, 89, 2.87867965644, 12.8786796564
100104, 91, 12.8786796564, 2.87867965644
100105, 91, 2.87867965644, 12.8786796564
100106, 93, 12.8786796564, 2.87867965644
100107, 93, 2.87867965644, 12.8786796564
100108, 95, 12.8786796564, 2.87867965644
100109, 95, 2.87867965644, 12.8786796564
100110, 97, 12.8786796564, 2.87867965644
100111, 97, 2.87867965644, 12.8786796564
100112, 99, 12.8786796564, 2.87867965644
100113, 99, 2.87867965644, 12.8786796564
100114, 0, 10.7573593129, 2.17157287525
100115, 100, 10.7573593129, 2.17157287525
100116, 0, 9.34314575051, 3.58578643763
100117, 100, 9.34314575051, 3.58578643763
100118, 0, 7.92893218813, 5
100119, 100, 7.92893218813, 5
100120, 0, 6.51471862576, 6.41421356237
100121, 100, 6.51471862576, 6.41421356237
100122, 0, 5.10050506339, 7.82842712475
100123, 100, 5.10050506339, 7.82842712475
100124, 0, 3.68629150102, 9.24264068712
100125, 100, 3.68629150102, 9.24264068712
100126, 0, 2.27207793864, 10.6568542495
100127, 100, 2.27207793864, 10.6568542495
100128, 1, 10.0502525317, 0.0502525316942
100129, 1, 0.0502525316942, 10.0502525317
100130, 3, 10.0502525317, 0.0502525316942
100131, 3, 0.0502525316942, 10.0502525317
100132, 5, 10.0502525317, 0.0502525316942
100133, 5, 0.0502525316942, 10.0502525317
100134, 7, 10.0502525317, 0.0502525316942
100135, 7, 0.0502525316942, 10.0502525317
100136, 9, 10.0502525317, 0.0502525316942
100137, 9, 0.0502525316942, 10.0502525317
100138, 11, 10.0502525317, 0.0502525316942
100139, 11, 0.0502525316942, 10.0502525317
100140, 13, 10.0502525317, 0.0502525316942
100141, 13, 0.0502525316942, 10.0502525317
100142, 15, 10.0502525317, 0.0502525316942
100143, 15, 0.0502525316942, 10.0502525317
100144, 17, 10.0502525317, 0.0502525316942
100145, 17, 0.0502525316942, 10.0502525317
100146, 19, 10.0502525317, 0.0502525316942
100147, 19, 0.0502525316942, 10.0502525317
100148, 21, 10.0502525317, 0.0502525316942
100149, 21, 0.0502525316942, 10.0502525317
100150, 23, 10.0502525317, 0.0502525316942
100151, 23, 0.0502525316942, 10.0502525317
100152, 25, 10.0502525317, 0.0502525316942
100153, 25, 0.0502525316942, 10.0502525317
100154, 27, 10.0502525317, 0.0502525316942
100155, 27, 0.0502525316942, 10.0502525317
100156, 29, 10.0502525317, 0.0502525316942
100157, 29, 0.0502525316942, 10.0502525317
100158, 31, 10.0502525317, 0.0502525316942
100159, 31, 0.0502525316942, 10.0502525317
100160, 33, 10.0502525317, 0.0502525316942
100161, 33, 0.0502525316942, 10.0502525317
100162, 35, 10.0502525317, 0.0502525316942
100163, 35, 0.0502525316942, 10.0502525317
100164, 37, 10.0502525317, 0.0502525316942
100165, 37, 0.0502525316942, 10.0502525317
100166, 39, 10.0502525317, 0.0502525316942
100167, 39, 0.0502525316942, 10.0502525317
100168, 41, 10.0502525317, 0.0502525316942
100169, 41, 0.0502525316942, 10.0502525317
100170, 43, 10.0502525317, 0.0502525316942
100171, 43, 0.0502525316942, 10.0502525317
100172, 45, 10.0502525317, 0.0502525316942
100173, 45, 0.0502525316942, 10.0502525317
100174, 47, 10.0502525317, 0.0502525316942
100175, 47, 0.0502525316942, 10.0502525317
100176, 49, 10.0502525317, 0.0502525316942
100177, 49, 0.0502525316942, 10.0502525317
100178, 51, 10.0502525317, 0.0502525316942
100179, 51, 0.0502525316942, 10.0502525317
100180, 53, 10.0502525317, 0.0502525316942
100181, 53, 0.0502525316942, 10.0502525317
100182, 55, 10.0502525317, 0.0502525316942
100183, 55, 0.0502525316942, 10.0502525317
100184, 57, 10.0502525317, 0.0502525316942
100185, 57, 0.0502525316942, 10.0502525317
100186, 59, 10.0502525317, 0.0502525316942
100187, 59, 0.0502525316942, 10.0502525317
100188, 61, 10.0502525317, 0.0502525316942
100189, 61, 0.0502525316942, 10.0502525317
100190, 63, 10.0502525317, 0.0502525316942
100191, 63, 0.0502525316942, 10.0502525317
100192, 65, 10.0502525317, 0.0502525316942
100193, 65, 0.0502525316942, 10.0502525317
100194, 67, 10.0502525317, 0.0502525316942
100195, 67, 0.0502525316942, 10.0502525317
100196, 69, 10.0502525317, 0.0502525316942
100197, 69, 0.0502525316942, 10.0502525317
100198, 71, 10.0502525317, 0.0502525316942
100199, 71, 0.0502525316942, 10.0502525317
100200, 73, 10.0502525317, 0.0502525316942
100201, 73, 0.0502525316942, 10.0502525317
100202, 75, 10.0502525317, 0.0502525316942
100203, 75, 0.0502525316942, 10.0502525317
100204, 77, 10.0502525317, 0.0502525316942
100205, 77, 0.0502525316942, 10.0502525317
100206, 79, 10.0502525317, 0.0502525316942
100207, 79, 0.0502525316942, 10.0502525317
100208, 81, 10.0502525317, 0.0502525316942
100209, 81, 0.0502525316942, 10.0502525317
100210, 83, 10.0502525317, 0.0502525316942
100211, 83, 0.0502525316942, 10.0502525317
100212, 85, 10.0502525317, 0.0502525316942
100213, 85, 0.0502525316942, 10.0502525317
100214, 87, 10.0502525317, 0.0502525316942
100215, 87, 0.0502525316942, 10.0502525317
100216, 89, 10.0502525317, 0.0502525316942
100217, 89, 0.0502525316942, 10.0502525317
100218, 91, 10.0502525317, 0.0502525316942
100219, 91, 0.0502525316942, 10.0502525317
100220, 93, 10.0502525317, 0.0502525316942
100221, 93, 0.0502525316942, 10.0502525317
100222, 95, 10.0502525317, 0.0502525316942
100223, 95, 0.0502525316942, 10.0502525317
100224, 97, 10.0502525317, 0.0502525316942
100225, 97, 0.0502525316942, 10.0502525317
100226, 99, 10.0502525317, 0.0502525316942
100227, 99, 0.0502525316942, 10.0502525317
100228, 0, 7.92893218813, -0.656854249492
100229, 100, 7.92893218813, -0.656854249492
100230, 0, 6.51471862576, 0.757359312881
100231, 100, 6.51471862576, 0.757359312881
100232, 0, 5.10050506339, 2.17157287525
100233, 100, 5.10050506339, 2.17157287525
100234, 0, 3.68629150102, 3.58578643763
100235, 100, 3.68629150102, 3.58578643763
100236, 0, 2.27207793864, 5
100237, 100, 2.27207793864, 5
100238, 0, 0.857864376269, 6.41421356237
100239, 100, 0.857864376269, 6.41421356237
100240, 0, -0.556349186104, 7.82842712475
100241, 100, -0.556349186104, 7.82842712475
100242, 1, 7.22182540695, -2.77817459305
100243, 1, -2.77817459305, 7.22182540695
100244, 3, 7.22182540695, -2.77817459305
100245, 3, -2.77817459305, 7.22182540695
100246, 5, 7.22182540695, -2.77817459305
100247, 5, -2.77817459305, 7.22182540695
100248, 7, 7.22182540695, -2.77817459305
100249, 7, -2.77817459305, 7.22182540695
100250, 9, 7.22182540695, -2.77817459305
100251, 9, -2.77817459305, 7.22182540695
100252, 11, 7.22182540695, -2.77817459305
100253, 11, -2.77817459305, 7.22182540695
100254, 13, 7.22182540695, -2.77817459305
100255, 13, -2.77817459305, 7.22182540695
100256, 15, 7.22182540695, -2.77817459305
100257, 15, -2.77817459305, 7.22182540695
100258, 17, 7.22182540695, -2.77817459305
100259, 17, -2.77817459305, 7.22182540695
100260, 19, 7.22182540695, -2.77817459305
100261, 19, -2.77817459305, 7.22182540695
100262, 21, 7.22182540695, -2.77817459305
100263, 21, -2.77817459305, 7.22182540695
100264, 23, 7.22182540695, -2.77817459305
100265, 23, -2.77817459305, 7.22182540695
100266, 25, 7.22182540695, -2.77817459305
100267, 25, -2.77817459305, 7.22182540695
100268, 27, 7.22182540695, -2.77817459305
100269, 27, -2.77817459305, 7.22182540695
100270, 29, 7.22182540695, -2.77817459305
100271, 29, -2.77817459305, 7.22182540695
100272, 31, 7.22182540695, -2.77817459305
100273, 31, -2.77817459305, 7.22182540695
100274, 33, 7.22182540695, -2.77817459305
100275, 33, -2.77817459305, 7.22182540695
100276, 35, 7.22182540695, -2.77817459305
100277, 35, -2.77817459305, 7.22182540695
100278, 37, 7.22182540695, -2.77817459305
100279, 37, -2.77817459305, 7.22182540695
100280, 39, 7.22182540695, -2.77817459305
100281, 39, -2.77817459305, 7.22182540695
100282, 41, 7.22182540695, -2.77817459305
100283, 41, -2.77817459305, 7.22182540695
100284, 43, 7.22182540695, -2.77817459305
100285, 43, -2.77817459305, 7.22182540695
100286, 45, 7.22182540695, -2.77817459305
100287, 45, -2.77817459305, 7.22182540695
100288, 47, 7.22182540695, -2.77817459305
100289, 47, -2.77817459305, 7.22182540695
100290, 49, 7.22182540695, -2.77817459305
100291, 49, -2.77817459305, 7.22182540695
100292, 51, 7.22182540695, -2.77817459305
100293, 51, -2.77817459305, 7.22182540695
100294, 53, 7.22182540695, -2.77817459305
100295, 53, -2.77817459305, 7.22182540695
100296, 55, 7.22182540695, -2.77817459305
100297, 55, -2.77817459305, 7.22182540695
100298, 57, 7.22182540695, -2.77817459305
100299, 57, -2.77817459305, 7.22182540695
100300, 59, 7.22182540695, -2.77817459305
100301, 59, -2.77817459305, 7.22182540695
100302, 61, 7.22182540695, -2.77817459305
100303, 61, -2.77817459305, 7.22182540695
100304, 63, 7.22182540695, -2.77817459305
100305, 63, -2.77817459305, 7.22182540695
100306, 65, 7.22182540695, -2.77817459305
100307, 65, -2.77817459305, 7.22182540695
100308, 67, 7.22182540695, -2.77817459305
100309, 67, -2.77817459305, 7.22182540695
100310, 69, 7.22182540695, -2.77817459305
100311, 69, -2.77817459305, 7.22182540695
100312, 71, 7.22182540695, -2.77817459305
100313, 71, -2.77817459305, 7.22182540695
100314, 73, 7.22182540695, -2.77817459305
100315, 73, -2.77817459305, 7.22182540695
100316, 75, 7.22182540695, -2.77817459305
100317, 75, -2.77817459305, 7.22182540695
100318, 77, 7.22182540695, -2.77817459305
100319, 77, -2.77817459305, 7.22182540695
100320, 79, 7.22182540695, -2.77817459305
100321, 79, -2.77817459305, 7.22182540695
100322, 81, 7.22182540695, -2.77817459305
100323, 81, -2.77817459305, 7.22182540695
100324, 83, 7.22182540695, -2.77817459305
100325, 83, -2.77817459305, 7.22182540695
100326, 85, 7.22182540695, -2.77817459305
100327, 85, -2.77817459305, 7.22182540695
100328, 87, 7.22182540695, -2.77817459305
100329, 87, -2.77817459305, 7.22182540695
100330, 89, 7.22182540695, -2.77817459305
100331, 89, -2.77817459305, 7.22182540695
100332, 91, 7.22182540695, -2.77817459305
100333, 91, -2.77817459305, 7.22182540695
100334, 93, 7.22182540695, -2.77817459305
100335, 93, -2.77817459305, 7.22182540695
100336, 95, 7.22182540695, -2.77817459305
100337, 95, -2.77817459305, 7.22182540695
100338, 97, 7.22182540695, -2.77817459305
100339, 97, -2.77817459305, 7.22182540695
100340, 99, 7.22182540695, -2.77817459305
100341, 99, -2.77817459305, 7.22182540695
100342, 0, 5.10050506339, -3.48528137424
100343, 100, 5.10050506339, -3.48528137424
100344, 0, 3.68629150102, -2.07106781187
100345, 100, 3.68629150102, -2.07106781187
100346, 0, 2.27207793864, -0.656854249492
100347, 100, 2.27207793864, -0.656854249492
100348, 0, 0.857864376269, 0.757359312881
100349, 100, 0.857864376269, 0.757359312881
100350, 0, -0.556349186104, 2.17157287525
100351, 100, -0.556349186104, 2.17157287525
100352, 0, -1.97056274848, 3.58578643763
100353, 100, -1.97056274848, 3.58578643763
100354, 0, -3.38477631085, 5
100355, 100, -3.38477631085, 5
*Element, type=T3D2, elset=EMBMESH_FIBERS
100000, 100000,100001
100001, 100002,100003
100002, 100004,100005
100003, 100006,100007
100004, 100008,100009
100005, 100010,100011
100006, 100012,100013
100007, 100014,100015
100008, 100016,100017
100009, 100018,100019
100010, 100020,100021
100011, 100022,100023
100012, 100024,100025
100013, 100026,100027
100014, 100028,100029
100015, 100030,100031
100016, 100032,100033
100017, 100034,100035
100018, 100036,100037
100019, 100038,100039
100020, 100040,100041
100021, 100042,100043
100022, 100044,100045
100023, 100046,100047
100024, 100048,100049
100025, 100050,100051
100026, 100052,100053
100027, 100054,100055
100028, 100056,100057
100029, 100058,100059
100030, 100060,100061
100031, 100062,100063
100032, 100064,100065
100033, 100066,100067
100034, 100068,100069
100035, 100070,100071
100036, 100072,100073
100037, 100074,100075
100038, 100076,100077
100039, 100078,100079
100040, 100080,100081
100041, 100082,100083
100042, 100084,100085
100043, 100086,100087
100044, 100088,100089
100045, 100090,100091
100046, 100092,100093
100047, 100094,100095
100048, 100096,100097
100049, 100098,100099
100050, 100100,100101
100051, 100102,100103
100052, 100104,100105
100053, 100106,100107
100054, 100108,100109
100055, 100110,100111
100056, 100112,100113
100057, 100114,100115
100058, 100116,100117
100059, 100118,100119
100060, 100120,100121
100061, 100122,100123
100062, 100124,100125
100063, 100126,100127
100064, 100128,100129
100065, 100130,100131
100066, 100132,100133
100067, 100134,100135
100068, 100136,100137
100069, 100138,100139
100070, 100140,100141
100071, 100142,100143
100072, 100144,100145
100073, 100146,100147
100074, 100148,100149
100075, 100150,100151
100076, 100152,100153
100077, 100154,100155
100078, 100156,100157
100079, 100158,100159
100080, 100160,100161
100081, 100162,100163
100082, 100164,100165
100083, 100166,100167
100084, 100168,100169
100085, 100170,100171
100086, 100172,100173
100087, 100174,100175
100088, 100176,100177
100089, 100178,100179
100090, 100180,100181
100091, 100182,100183
100092, 100184,100185
100093, 100186,100187
100094, 100188,100189
100095, 100190,100191
100096, 100192,100193
100097, 100194,100195
100098, 100196,100197
100099, 100198,100199
100100, 100200,100201
100101, 100202,100203
100102, 100204,100205
100103, 100206,100207
100104, 100208,100209
100105, 100210,100211
100106, 100212,100213
100107, 100214,100215
100108, 100216,100217
100109, 100218,100219
100110, 100220,100221
100111, 100222,100223
100112, 100224,100225
100113, 100226,100227
100114, 100228,100229
100115, 100230,100231
100116, 100232,100233
100117, 100234,100235
100118, 100236,100237
100119, 100238,100239
100120, 100240,100241
100121, 100242,100243
100122, 100244,100245
100123, 100246,100247
100124, 100248,100249
100125, 100250,100251
100126, 100252,100253
100127, 100254,100255
100128, 100256,100257
100129, 100258,100259
100130, 100260,100261
100131, 100262,100263
100132, 100264,100265
100133, 100266,100267
100134, 100268,100269
100135, 100270,100271
100136, 100272,100273
100137, 100274,100275
100138, 100276,100277
100139, 100278,100279
100140, 100280,100281
100141, 100282,100283
100142, 100284,100285
100143, 100286,100287
100144, 100288,100289
100145, 100290,100291
100146, 100292,100293
100147, 100294,100295
100148, 100296,100297
100149, 100298,100299
100150, 100300,100301
100151, 100302,100303
100152, 100304,100305
100153, 100306,100307
100154, 100308,100309
100155, 100310,100311
100156, 100312,100313
100157, 100314,100315
100158, 100316,100317
100159, 100318,100319
100160, 100320,100321
100161, 100322,100323
100162, 100324,100325
100163, 100326,100327
100164, 100328,100329
100165, 100330,100331
100166, 100332,100333
100167, 100334,100335
100168, 100336,100337
100169, 100338,100339
100170, 100340,100341
100171, 100342,100343
100172, 100344,100345
100173, 100346,100347
100174, 100348,100349
100175, 100350,100351
100176, 100352,100353
100177, 100354,100355
*Solid Section, elset=EMBMESH_FIBERS, material=FIBER
3.14159265358979
*End Part
*Assembly, name=Assembly
*Instance, name=PLATE-1, part=PLATE
*End Instance
*Nset, nset=FIXED, instance=PLATE-1
1, 42, 83, 124, 165, 206, 247, 288, 329, 370, 411, 452
493, 534, 575, 616, 657, 698, 739, 780, 821, 862, 903, 944
985
*Nset, nset=TIP, instance=PLATE-1
41, 82, 123, 164, 205, 246, 287, 328, 369, 410, 451, 492
533, 574, 615, 656, 697, 738, 779, 820, 861, 902, 943, 984
1025
*Instance, name=EMBFIB-1, part=EMBFIB
*End Instance
*Embedded Element, host elset=PLATE-1.HOST
EMBFIB-1.EMBMESH_FIBERS
*End Assembly
*Material, name=MATRIX
*Density
1.2e-09,
*Elastic
3500, 0.35
*Material, name=FIBER
*Density
1.8e-09,
*Elastic
230000, 0.2
*Amplitude, name=RAMP, definition=SMOOTH STEP
0., 0., 0.0004, 1.
*Step, name=S1
*Dynamic, Explicit
, 0.0004
*Fixed Mass Scaling, factor=1.0
*Boundary
FIXED, 1, 3
*Dload
PLATE-1.HOST, GRAV, 9810., 0., 0., -1.
*Output, history, frequency=1000000
*Node Output, nset=TIP
RF1, RF2, RF3, U1, U2, U3
*Output, field, number interval=5
*Node Output
U, RF
*Element Output, directions=YES
S, E
*Output, history, time interval=8e-06
*Energy Output
ALLIE, ALLKE, ALLWK, ALLVD, ALLAE, ETOTAL
*End Step