*Heading
*Preprint, echo=NO, model=YES, history=NO, contact=NO
** verification deck cantilever_10x2x2_src.inp
*Part, name=PLATE
*Node
1, 0, 0, 0
2, 10, 0, 0
3, 20, 0, 0
4, 30, 0, 0
5, 40, 0, 0
6, 50, 0, 0
7, 60, 0, 0
8, 70, 0, 0
9, 80, 0, 0
10, 90, 0, 0
11, 100, 0, 0
12, 0, 5, 0
13, 10, 5, 0
14, 20, 5, 0
15, 30, 5, 0
16, 40, 5, 0
17, 50, 5, 0
18, 60, 5, 0
19, 70, 5, 0
20, 80, 5, 0
21, 90, 5, 0
22, 100, 5, 0
23, 0, 10, 0
24, 10, 10, 0
25, 20, 10, 0
26, 30, 10, 0
27, 40, 10, 0
28, 50, 10, 0
29, 60, 10, 0
30, 70, 10, 0
31, 80, 10, 0
32, 90, 10, 0
33, 100, 10, 0
34, 0, 0, 5
35, 10, 0, 5
36, 20, 0, 5
37, 30, 0, 5
38, 40, 0, 5
39, 50, 0, 5
40, 60, 0, 5
41, 70, 0, 5
42, 80, 0, 5
43, 90, 0, 5
44, 100, 0, 5
45, 0, 5, 5
46, 10, 5, 5
47, 20, 5, 5
48, 30, 5, 5
49, 40, 5, 5
50, 50, 5, 5
51, 60, 5, 5
52, 70, 5, 5
53, 80, 5, 5
54, 90, 5, 5
55, 100, 5, 5
56, 0, 10, 5
57, 10, 10, 5
58, 20, 10, 5
59, 30, 10, 5
60, 40, 10, 5
61, 50, 10, 5
62, 60, 10, 5
63, 70, 10, 5
64, 80, 10, 5
65, 90, 10, 5
66, 100, 10, 5
67, 0, 0, 10
68, 10, 0, 10
69, 20, 0, 10
70, 30, 0, 10
71, 40, 0, 10
72, 50, 0, 10
73, 60, 0, 10
74, 70, 0, 10
75, 80, 0, 10
76, 90, 0, 10
77, 100, 0, 10
78, 0, 5, 10
79, 10, 5, 10
80, 20, 5, 10
81, 30, 5, 10
82, 40, 5, 10
83, 50, 5, 10
84, 60, 5, 10
85, 70, 5, 10
86, 80, 5, 10
87, 90, 5, 10
88, 100, 5, 10
89, 0, 10, 10
90, 10, 10, 10
91, 20, 10, 10
92, 30, 10, 10
93, 40, 10, 10
94, 50, 10, 10
95, 60, 10, 10
96, 70, 10, 10
97, 80, 10, 10
98, 90, 10, 10
99, 100, 10, 10
*Element, type=C3D8R, elset=HOST
1, 1, 2, 13, 12, 34, 35, 46, 45
2, 2, 3, 14, 13, 35, 36, 47, 46
3, 3, 4, 15, 14, 36, 37, 48, 47
4, 4, 5, 16, 15, 37, 38, 49, 48
5, 5, 6, 17, 16, 38, 39, 50, 49
6, 6, 7, 18, 17, 39, 40, 51, 50
7, 7, 8, 19, 18, 40, 41, 52, 51
8, 8, 9, 20, 19, 41, 42, 53, 52
9, 9, 10, 21, 20, 42, 43, 54, 53
10, 10, 11, 22, 21, 43, 44, 55, 54
11, 12, 13, 24, 23, 45, 46, 57, 56
12, 13, 14, 25, 24, 46, 47, 58, 57
13, 14, 15, 26, 25, 47, 48, 59, 58
14, 15, 16, 27, 26, 48, 49, 60, 59
15, 16, 17, 28, 27, 49, 50, 61, 60
16, 17, 18, 29, 28, 50, 51, 62, 61
17, 18, 19, 30, 29, 51, 52, 63, 62
18, 19, 20, 31, 30, 52, 53, 64, 63
19, 20, 21, 32, 31, 53, 54, 65, 64
20, 21, 22, 33, 32, 54, 55, 66, 65
21, 34, 35, 46, 45, 67, 68, 79, 78
22, 35, 36, 47, 46, 68, 69, 80, 79
23, 36, 37, 48, 47, 69, 70, 81, 80
24, 37, 38, 49, 48, 70, 71, 82, 81
25, 38, 39, 50, 49, 71, 72, 83, 82
26, 39, 40, 51, 50, 72, 73, 84, 83
27, 40, 41, 52, 51, 73, 74, 85, 84
28, 41, 42, 53, 52, 74, 75, 86, 85
29, 42, 43, 54, 53, 75, 76, 87, 86
30, 43, 44, 55, 54, 76, 77, 88, 87
31, 45, 46, 57, 56, 78, 79, 90, 89
32, 46, 47, 58, 57, 79, 80, 91, 90
33, 47, 48, 59, 58, 80, 81, 92, 91
34, 48, 49, 60, 59, 81, 82, 93, 92
35, 49, 50, 61, 60, 82, 83, 94, 93
36, 50, 51, 62, 61, 83, 84, 95, 94
37, 51, 52, 63, 62, 84, 85, 96, 95
38, 52, 53, 64, 63, 85, 86, 97, 96
39, 53, 54, 65, 64, 86, 87, 98, 97
40, 54, 55, 66, 65, 87, 88, 99, 98
*Solid Section, elset=HOST, material=MATRIX
,
*End Part
*Assembly, name=Assembly
*Instance, name=PLATE-1, part=PLATE
*End Instance
*Nset, nset=FIXED, instance=PLATE-1
1, 12, 23, 34, 45, 56, 67, 78, 89
*Nset, nset=TIP, instance=PLATE-1
11, 22, 33, 44, 55, 66, 77, 88, 99
*End Assembly
