*Heading
*Preprint, echo=NO, model=YES, history=NO, contact=NO
** verification deck control_nofiber_src.inp
*Part, name=PLATE
*Node
1, 0, 0, 0
2, 1, 0, 0
3, 0, 1, 0
4, 1, 1, 0
5, 0, 0, 1
6, 1, 0, 1
7, 0, 1, 1
8, 1, 1, 1
*Element, type=C3D8R, elset=HOST
1, 1, 2, 4, 3, 5, 6, 8, 7
*Solid Section, elset=HOST, material=MATRIX
,
*End Part
*Assembly, name=Assembly
*Instance, name=PLATE-1, part=PLATE
*End Instance
*Nset, nset=LEFT, instance=PLATE-1
1,3,5,7
*Nset, nset=RIGHT, instance=PLATE-1
2,4,6,8
*Nset, nset=ORIGIN, instance=PLATE-1
1
*Nset, nset=ALLN, instance=PLATE-1
1,2,3,4,5,6,7,8
*End Assembly
*Material, name=MATRIX
*Density
1.2e-09,
*Elastic
3500, 0.35
*Amplitude, name=RAMP, definition=SMOOTH STEP
0., 0., 2e-05, 1.
*Step, name=S1
*Dynamic, Explicit
, 2e-05
*Boundary
LEFT,1,1
ORIGIN,2,3
*Boundary, amplitude=RAMP
RIGHT,1,1,0.001
*Output, history, frequency=1000000
*Node Output, nset=ALLN
RF1, RF2, RF3, U1, U2, U3
*Output, field, number interval=5
*Node Output
U, RF
*Element Output, directions=YES
S, E
*Output, history, time interval=4e-07
*Energy Output
ALLIE, ALLKE, ALLWK, ALLVD, ALLAE, ETOTAL
*End Step
