*Heading
*Preprint, echo=NO, model=YES, history=NO, contact=NO
** verification deck sens_refine_n1_src.inp
*Part, name=PLATE
*Node
1, 0, 0, 0
2, 2, 0, 0
3, 0, 2, 0
4, 2, 2, 0
5, 0, 0, 2
6, 2, 0, 2
7, 0, 2, 2
8, 2, 2, 2
*Element, type=C3D8R, elset=HOST
1, 1, 2, 4, 3, 5, 6, 8, 7
*Solid Section, elset=HOST, material=MATRIX
,
*End Part
*Assembly, name=Assembly
*Instance, name=PLATE-1, part=PLATE
*End Instance
*Nset, nset=LEFT, instance=PLATE-1
1, 3, 5, 7
*Nset, nset=RIGHT, instance=PLATE-1
2, 4, 6, 8
*Nset, nset=ORIGIN, instance=PLATE-1
1
*Nset, nset=ALLN, instance=PLATE-1
1, 2, 3, 4, 5, 6, 7, 8
*End Assembly
