*Heading
*Preprint, echo=NO, model=YES, history=NO, contact=NO
** verification deck sens_refine_n3_src.inp
*Part, name=PLATE
*Node
1, 0, 0, 0
2, 0.666666666667, 0, 0
3, 1.33333333333, 0, 0
4, 2, 0, 0
5, 0, 0.666666666667, 0
6, 0.666666666667, 0.666666666667, 0
7, 1.33333333333, 0.666666666667, 0
8, 2, 0.666666666667, 0
9, 0, 1.33333333333, 0
10, 0.666666666667, 1.33333333333, 0
11, 1.33333333333, 1.33333333333, 0
12, 2, 1.33333333333, 0
13, 0, 2, 0
14, 0.666666666667, 2, 0
15, 1.33333333333, 2, 0
16, 2, 2, 0
17, 0, 0, 0.666666666667
18, 0.666666666667, 0, 0.666666666667
19, 1.33333333333, 0, 0.666666666667
20, 2, 0, 0.666666666667
21, 0, 0.666666666667, 0.666666666667
22, 0.666666666667, 0.666666666667, 0.666666666667
23, 1.33333333333, 0.666666666667, 0.666666666667
24, 2, 0.666666666667, 0.666666666667
25, 0, 1.33333333333, 0.666666666667
26, 0.666666666667, 1.33333333333, 0.666666666667
27, 1.33333333333, 1.33333333333, 0.666666666667
28, 2, 1.33333333333, 0.666666666667
29, 0, 2, 0.666666666667
30, 0.666666666667, 2, 0.666666666667
31, 1.33333333333, 2, 0.666666666667
32, 2, 2, 0.666666666667
33, 0, 0, 1.33333333333
34, 0.666666666667, 0, 1.33333333333
35, 1.33333333333, 0, 1.33333333333
36, 2, 0, 1.33333333333
37, 0, 0.666666666667, 1.33333333333
38, 0.666666666667, 0.666666666667, 1.33333333333
39, 1.33333333333, 0.666666666667, 1.33333333333
40, 2, 0.666666666667, 1.33333333333
41, 0, 1.33333333333, 1.33333333333
42, 0.666666666667, 1.33333333333, 1.33333333333
43, 1.33333333333, 1.33333333333, 1.33333333333
44, 2, 1.33333333333, 1.33333333333
45, 0, 2, 1.33333333333
46, 0.666666666667, 2, 1.33333333333
47, 1.33333333333, 2, 1.33333333333
48, 2, 2, 1.33333333333
49, 0, 0, 2
50, 0.666666666667, 0, 2
51, 1.33333333333, 0, 2
52, 2, 0, 2
53, 0, 0.666666666667, 2
54, 0.666666666667, 0.666666666667, 2
55, 1.33333333333, 0.666666666667, 2
56, 2, 0.666666666667, 2
57, 0, 1.33333333333, 2
58, 0.666666666667, 1.33333333333, 2
59, 1.33333333333, 1.33333333333, 2
60, 2, 1.33333333333, 2
61, 0, 2, 2
62, 0.666666666667, 2, 2
63, 1.33333333333, 2, 2
64, 2, 2, 2
*Element, type=C3D8R, elset=HOST
1, 1, 2, 6, 5, 17, 18, 22, 21
2, 2, 3, 7, 6, 18, 19, 23, 22
3, 3, 4, 8, 7, 19, 20, 24, 23
4, 5, 6, 10, 9, 21, 22, 26, 25
5, 6, 7, 11, 10, 22, 23, 27, 26
6, 7, 8, 12, 11, 23, 24, 28, 27
7, 9, 10, 14, 13, 25, 26, 30, 29
8, 10, 11, 15, 14, 26, 27, 31, 30
9, 11, 12, 16, 15, 27, 28, 32, 31
10, 17, 18, 22, 21, 33, 34, 38, 37
11, 18, 19, 23, 22, 34, 35, 39, 38
12, 19, 20, 24, 23, 35, 36, 40, 39
13, 21, 22, 26, 25, 37, 38, 42, 41
14, 22, 23, 27, 26, 38, 39, 43, 42
15, 23, 24, 28, 27, 39, 40, 44, 43
16, 25, 26, 30, 29, 41, 42, 46, 45
17, 26, 27, 31, 30, 42, 43, 47, 46
18, 27, 28, 32, 31, 43, 44, 48, 47
19, 33, 34, 38, 37, 49, 50, 54, 53
20, 34, 35, 39, 38, 50, 51, 55, 54
21, 35, 36, 40, 39, 51, 52, 56, 55
22, 37, 38, 42, 41, 53, 54, 58, 57
23, 38, 39, 43, 42, 54, 55, 59, 58
24, 39, 40, 44, 43, 55, 56, 60, 59
25, 41, 42, 46, 45, 57, 58, 62, 61
26, 42, 43, 47, 46, 58, 59, 63, 62
27, 43, 44, 48, 47, 59, 60, 64, 63
*Solid Section, elset=HOST, material=MATRIX
,
*End Part
*Part, name=EMBFIB
** embmesh generated fibers
*Node, nset=EMBMESH_NODES
100000, 0, 0.263245553203, -0.473508893593
100001, 2, 0.263245553203, -0.473508893593
100002, 0, 0.452982212813, -0.41026334039
100003, 2, 0.452982212813, -0.41026334039
100004, 0, 0.642718872424, -0.347017787187
100005, 2, 0.642718872424, -0.347017787187
100006, 0, 0.832455532034, -0.283772233983
100007, 2, 0.832455532034, -0.283772233983
100008, 0, 1.02219219164, -0.22052668078
100009, 2, 1.02219219164, -0.22052668078
100010, 0, 1.21192885125, -0.157281127576
100011, 2, 1.21192885125, -0.157281127576
100012, 0, 1.40166551086, -0.0940355743731
100013, 2, 1.40166551086, -0.0940355743731
100014, 0, 1.59140217047, -0.0307900211697
100015, 2, 1.59140217047, -0.0307900211697
100016, 0, 1.78113883008, 0.0324555320337
100017, 2, 1.78113883008, 0.0324555320337
100018, 0, 1.97087548969, 0.095701085237
100019, 2, 1.97087548969, 0.095701085237
100020, 0, 2.1606121493, 0.15894663844
100021, 2, 2.1606121493, 0.15894663844
100022, 0, 2.35034880891, 0.222192191644
100023, 2, 2.35034880891, 0.222192191644
100024, 0, 2.54008546852, 0.285437744847
100025, 2, 2.54008546852, 0.285437744847
100026, 0.1, 0.105131670195, -0.315395010585
100027, 0.1, 2.50513167019, 0.484604989415
100028, 0.3, 0.105131670195, -0.315395010585
100029, 0.3, 2.50513167019, 0.484604989415
100030, 0.5, 0.105131670195, -0.315395010585
100031, 0.5, 2.50513167019, 0.484604989415
100032, 0.7, 0.105131670195, -0.315395010585
100033, 0.7, 2.50513167019, 0.484604989415
100034, 0.9, 0.105131670195, -0.315395010585
100035, 0.9, 2.50513167019, 0.484604989415
100036, 1.1, 0.105131670195, -0.315395010585
100037, 1.1, 2.50513167019, 0.484604989415
100038, 1.3, 0.105131670195, -0.315395010585
100039, 1.3, 2.50513167019, 0.484604989415
100040, 1.5, 0.105131670195, -0.315395010585
100041, 1.5, 2.50513167019, 0.484604989415
100042, 1.7, 0.105131670195, -0.315395010585
100043, 1.7, 2.50513167019, 0.484604989415
100044, 1.9, 0.105131670195, -0.315395010585
100045, 1.9, 2.50513167019, 0.484604989415
100046, 0, 0.136754446797, -0.0940355743731
100047, 2, 0.136754446797, -0.0940355743731
100048, 0, 0.326491106407, -0.0307900211697
100049, 2, 0.326491106407, -0.0307900211697
100050, 0, 0.516227766017, 0.0324555320337
100051, 2, 0.516227766017, 0.0324555320337
100052, 0, 0.705964425627, 0.095701085237
100053, 2, 0.705964425627, 0.095701085237
100054, 0, 0.895701085237, 0.15894663844
100055, 2, 0.895701085237, 0.15894663844
100056, 0, 1.08543774485, 0.222192191644
100057, 2, 1.08543774485, 0.222192191644
100058, 0, 1.27517440446, 0.285437744847
100059, 2, 1.27517440446, 0.285437744847
100060, 0, 1.46491106407, 0.348683298051
100061, 2, 1.46491106407, 0.348683298051
100062, 0, 1.65464772368, 0.411928851254
100063, 2, 1.65464772368, 0.411928851254
100064, 0, 1.84438438329, 0.475174404457
100065, 2, 1.84438438329, 0.475174404457
100066, 0, 2.0341210429, 0.538419957661
100067, 2, 2.0341210429, 0.538419957661
100068, 0, 2.22385770251, 0.601665510864
100069, 2, 2.22385770251, 0.601665510864
100070, 0, 2.41359436212, 0.664911064067
100071, 2, 2.41359436212, 0.664911064067
100072, 0.1, -0.0213594362118, 0.0640783086354
100073, 0.1, 2.37864056379, 0.864078308635
100074, 0.3, -0.0213594362118, 0.0640783086354
100075, 0.3, 2.37864056379, 0.864078308635
100076, 0.5, -0.0213594362118, 0.0640783086354
100077, 0.5, 2.37864056379, 0.864078308635
100078, 0.7, -0.0213594362118, 0.0640783086354
100079, 0.7, 2.37864056379, 0.864078308635
100080, 0.9, -0.0213594362118, 0.0640783086354
100081, 0.9, 2.37864056379, 0.864078308635
100082, 1.1, -0.0213594362118, 0.0640783086354
100083, 1.1, 2.37864056379, 0.864078308635
100084, 1.3, -0.0213594362118, 0.0640783086354
100085, 1.3, 2.37864056379, 0.864078308635
100086, 1.5, -0.0213594362118, 0.0640783086354
100087, 1.5, 2.37864056379, 0.864078308635
100088, 1.7, -0.0213594362118, 0.0640783086354
100089, 1.7, 2.37864056379, 0.864078308635
100090, 1.9, -0.0213594362118, 0.0640783086354
100091, 1.9, 2.37864056379, 0.864078308635
100092, 0, 0.0102633403899, 0.285437744847
100093, 2, 0.0102633403899, 0.285437744847
100094, 0, 0.2, 0.348683298051
100095, 2, 0.2, 0.348683298051
100096, 0, 0.38973665961, 0.411928851254
100097, 2, 0.38973665961, 0.411928851254
100098, 0, 0.57947331922, 0.475174404457
100099, 2, 0.57947331922, 0.475174404457
100100, 0, 0.76920997883, 0.538419957661
100101, 2, 0.76920997883, 0.538419957661
100102, 0, 0.95894663844, 0.601665510864
100103, 2, 0.95894663844, 0.601665510864
100104, 0, 1.14868329805, 0.664911064067
100105, 2, 1.14868329805, 0.664911064067
100106, 0, 1.33841995766, 0.728156617271
100107, 2, 1.33841995766, 0.728156617271
100108, 0, 1.52815661727, 0.791402170474
100109, 2, 1.52815661727, 0.791402170474
100110, 0, 1.71789327688, 0.854647723677
100111, 2, 1.71789327688, 0.854647723677
100112, 0, 1.90762993649, 0.917893276881
100113, 2, 1.90762993649, 0.917893276881
100114, 0, 2.0973665961, 0.981138830084
100115, 2, 2.0973665961, 0.981138830084
100116, 0, 2.28710325571, 1.04438438329
100117, 2, 2.28710325571, 1.04438438329
100118, 0.1, -0.147850542619, 0.443551627856
100119, 0.1, 2.25214945738, 1.24355162786
100120, 0.3, -0.147850542619, 0.443551627856
100121, 0.3, 2.25214945738, 1.24355162786
100122, 0.5, -0.147850542619, 0.443551627856
100123, 0.5, 2.25214945738, 1.24355162786
100124, 0.7, -0.147850542619, 0.443551627856
100125, 0.7, 2.25214945738, 1.24355162786
100126, 0.9, -0.147850542619, 0.443551627856
100127, 0.9, 2.25214945738, 1.24355162786
100128, 1.1, -0.147850542619, 0.443551627856
100129, 1.1, 2.25214945738, 1.24355162786
100130, 1.3, -0.147850542619, 0.443551627856
100131, 1.3, 2.25214945738, 1.24355162786
100132, 1.5, -0.147850542619, 0.443551627856
100133, 1.5, 2.25214945738, 1.24355162786
100134, 1.7, -0.147850542619, 0.443551627856
100135, 1.7, 2.25214945738, 1.24355162786
100136, 1.9, -0.147850542619, 0.443551627856
100137, 1.9, 2.25214945738, 1.24355162786
100138, 0, -0.116227766017, 0.664911064067
100139, 2, -0.116227766017, 0.664911064067
100140, 0, 0.0735088935933, 0.728156617271
100141, 2, 0.0735088935933, 0.728156617271
100142, 0, 0.263245553203, 0.791402170474
100143, 2, 0.263245553203, 0.791402170474
100144, 0, 0.452982212813, 0.854647723677
100145, 2, 0.452982212813, 0.854647723677
100146, 0, 0.642718872424, 0.917893276881
100147, 2, 0.642718872424, 0.917893276881
100148, 0, 0.832455532034, 0.981138830084
100149, 2, 0.832455532034, 0.981138830084
100150, 0, 1.02219219164, 1.04438438329
100151, 2, 1.02219219164, 1.04438438329
100152, 0, 1.21192885125, 1.10762993649
100153, 2, 1.21192885125, 1.10762993649
100154, 0, 1.40166551086, 1.17087548969
100155, 2, 1.40166551086, 1.17087548969
100156, 0, 1.59140217047, 1.2341210429
100157, 2, 1.59140217047, 1.2341210429
100158, 0, 1.78113883008, 1.2973665961
100159, 2, 1.78113883008, 1.2973665961
100160, 0, 1.97087548969, 1.3606121493
100161, 2, 1.97087548969, 1.3606121493
100162, 0, 2.1606121493, 1.42385770251
100163, 2, 2.1606121493, 1.42385770251
100164, 0.1, -0.274341649025, 0.823024947076
100165, 0.1, 2.12565835097, 1.62302494708
100166, 0.3, -0.274341649025, 0.823024947076
100167, 0.3, 2.12565835097, 1.62302494708
100168, 0.5, -0.274341649025, 0.823024947076
100169, 0.5, 2.12565835097, 1.62302494708
100170, 0.7, -0.274341649025, 0.823024947076
100171, 0.7, 2.12565835097, 1.62302494708
100172, 0.9, -0.274341649025, 0.823024947076
100173, 0.9, 2.12565835097, 1.62302494708
100174, 1.1, -0.274341649025, 0.823024947076
100175, 1.1, 2.12565835097, 1.62302494708
100176, 1.3, -0.274341649025, 0.823024947076
100177, 1.3, 2.12565835097, 1.62302494708
100178, 1.5, -0.274341649025, 0.823024947076
100179, 1.5, 2.12565835097, 1.62302494708
100180, 1.7, -0.274341649025, 0.823024947076
100181, 1.7, 2.12565835097, 1.62302494708
100182, 1.9, -0.274341649025, 0.823024947076
100183, 1.9, 2.12565835097, 1.62302494708
100184, 0, -0.242718872424, 1.04438438329
100185, 2, -0.242718872424, 1.04438438329
100186, 0, -0.0529822128135, 1.10762993649
100187, 2, -0.0529822128135, 1.10762993649
100188, 0, 0.136754446797, 1.17087548969
100189, 2, 0.136754446797, 1.17087548969
100190, 0, 0.326491106407, 1.2341210429
100191, 2, 0.326491106407, 1.2341210429
100192, 0, 0.516227766017, 1.2973665961
100193, 2, 0.516227766017, 1.2973665961
100194, 0, 0.705964425627, 1.3606121493
100195, 2, 0.705964425627, 1.3606121493
100196, 0, 0.895701085237, 1.42385770251
100197, 2, 0.895701085237, 1.42385770251
100198, 0, 1.08543774485, 1.48710325571
100199, 2, 1.08543774485, 1.48710325571
100200, 0, 1.27517440446, 1.55034880891
100201, 2, 1.27517440446, 1.55034880891
100202, 0, 1.46491106407, 1.61359436212
100203, 2, 1.46491106407, 1.61359436212
100204, 0, 1.65464772368, 1.67683991532
100205, 2, 1.65464772368, 1.67683991532
100206, 0, 1.84438438329, 1.74008546852
100207, 2, 1.84438438329, 1.74008546852
100208, 0, 2.0341210429, 1.80333102173
100209, 2, 2.0341210429, 1.80333102173
100210, 0.1, -0.400832755432, 1.2024982663
100211, 0.1, 1.99916724457, 2.0024982663
100212, 0.3, -0.400832755432, 1.2024982663
100213, 0.3, 1.99916724457, 2.0024982663
100214, 0.5, -0.400832755432, 1.2024982663
100215, 0.5, 1.99916724457, 2.0024982663
100216, 0.7, -0.400832755432, 1.2024982663
100217, 0.7, 1.99916724457, 2.0024982663
100218, 0.9, -0.400832755432, 1.2024982663
100219, 0.9, 1.99916724457, 2.0024982663
100220, 1.1, -0.400832755432, 1.2024982663
100221, 1.1, 1.99916724457, 2.0024982663
100222, 1.3, -0.400832755432, 1.2024982663
100223, 1.3, 1.99916724457, 2.0024982663
100224, 1.5, -0.400832755432, 1.2024982663
100225, 1.5, 1.99916724457, 2.0024982663
100226, 1.7, -0.400832755432, 1.2024982663
100227, 1.7, 1.99916724457, 2.0024982663
100228, 1.9, -0.400832755432, 1.2024982663
100229, 1.9, 1.99916724457, 2.0024982663
100230, 0, -0.36920997883, 1.42385770251
100231, 2, -0.36920997883, 1.42385770251
100232, 0, -0.17947331922, 1.48710325571
100233, 2, -0.17947331922, 1.48710325571
100234, 0, 0.0102633403899, 1.55034880891
100235, 2, 0.0102633403899, 1.55034880891
100236, 0, 0.2, 1.61359436212
100237, 2, 0.2, 1.61359436212
100238, 0, 0.38973665961, 1.67683991532
100239, 2, 0.38973665961, 1.67683991532
100240, 0, 0.57947331922, 1.74008546852
100241, 2, 0.57947331922, 1.74008546852
100242, 0, 0.76920997883, 1.80333102173
100243, 2, 0.76920997883, 1.80333102173
100244, 0, 0.95894663844, 1.86657657493
100245, 2, 0.95894663844, 1.86657657493
100246, 0, 1.14868329805, 1.92982212813
100247, 2, 1.14868329805, 1.92982212813
100248, 0, 1.33841995766, 1.99306768134
100249, 2, 1.33841995766, 1.99306768134
100250, 0, 1.52815661727, 2.05631323454
100251, 2, 1.52815661727, 2.05631323454
100252, 0, 1.71789327688, 2.11955878774
100253, 2, 1.71789327688, 2.11955878774
100254, 0, 1.90762993649, 2.18280434095
100255, 2, 1.90762993649, 2.18280434095
100256, 0.1, -0.527323861839, 1.58197158552
100257, 0.1, 1.87267613816, 2.38197158552
100258, 0.3, -0.527323861839, 1.58197158552
100259, 0.3, 1.87267613816, 2.38197158552
100260, 0.5, -0.527323861839, 1.58197158552
100261, 0.5, 1.87267613816, 2.38197158552
100262, 0.7, -0.527323861839, 1.58197158552
100263, 0.7, 1.87267613816, 2.38197158552
100264, 0.9, -0.527323861839, 1.58197158552
100265, 0.9, 1.87267613816, 2.38197158552
100266, 1.1, -0.527323861839, 1.58197158552
100267, 1.1, 1.87267613816, 2.38197158552
100268, 1.3, -0.527323861839, 1.58197158552
100269, 1.3, 1.87267613816, 2.38197158552
100270, 1.5, -0.527323861839, 1.58197158552
100271, 1.5, 1.87267613816, 2.38197158552
100272, 1.7, -0.527323861839, 1.58197158552
100273, 1.7, 1.87267613816, 2.38197158552
100274, 1.9, -0.527323861839, 1.58197158552
100275, 1.9, 1.87267613816, 2.38197158552
*Element, type=T3D2, elset=EMBMESH_FIBERS
100000, 100000,100001
100001, 100002,100003
100002, 100004,100005
100003, 100006,100007
100004, 100008,100009
100005, 100010,100011
100006, 100012,100013
100007, 100014,100015
100008, 100016,100017
100009, 100018,100019
100010, 100020,100021
100011, 100022,100023
100012, 100024,100025
100013, 100026,100027
100014, 100028,100029
100015, 100030,100031
100016, 100032,100033
100017, 100034,100035
100018, 100036,100037
100019, 100038,100039
100020, 100040,100041
100021, 100042,100043
100022, 100044,100045
100023, 100046,100047
100024, 100048,100049
100025, 100050,100051
100026, 100052,100053
100027, 100054,100055
100028, 100056,100057
100029, 100058,100059
100030, 100060,100061
100031, 100062,100063
100032, 100064,100065
100033, 100066,100067
100034, 100068,100069
100035, 100070,100071
100036, 100072,100073
100037, 100074,100075
100038, 100076,100077
100039, 100078,100079
100040, 100080,100081
100041, 100082,100083
100042, 100084,100085
100043, 100086,100087
100044, 100088,100089
100045, 100090,100091
100046, 100092,100093
100047, 100094,100095
100048, 100096,100097
100049, 100098,100099
100050, 100100,100101
100051, 100102,100103
100052, 100104,100105
100053, 100106,100107
100054, 100108,100109
100055, 100110,100111
100056, 100112,100113
100057, 100114,100115
100058, 100116,100117
100059, 100118,100119
100060, 100120,100121
100061, 100122,100123
100062, 100124,100125
100063, 100126,100127
100064, 100128,100129
100065, 100130,100131
100066, 100132,100133
100067, 100134,100135
100068, 100136,100137
100069, 100138,100139
100070, 100140,100141
100071, 100142,100143
100072, 100144,100145
100073, 100146,100147
100074, 100148,100149
100075, 100150,100151
100076, 100152,100153
100077, 100154,100155
100078, 100156,100157
100079, 100158,100159
100080, 100160,100161
100081, 100162,100163
100082, 100164,100165
100083, 100166,100167
100084, 100168,100169
100085, 100170,100171
100086, 100172,100173
100087, 100174,100175
100088, 100176,100177
100089, 100178,100179
100090, 100180,100181
100091, 100182,100183
100092, 100184,100185
100093, 100186,100187
100094, 100188,100189
100095, 100190,100191
100096, 100192,100193
100097, 100194,100195
100098, 100196,100197
100099, 100198,100199
100100, 100200,100201
100101, 100202,100203
100102, 100204,100205
100103, 100206,100207
100104, 100208,100209
100105, 100210,100211
100106, 100212,100213
100107, 100214,100215
100108, 100216,100217
100109, 100218,100219
100110, 100220,100221
100111, 100222,100223
100112, 100224,100225
100113, 100226,100227
100114, 100228,100229
100115, 100230,100231
100116, 100232,100233
100117, 100234,100235
100118, 100236,100237
100119, 100238,100239
100120, 100240,100241
100121, 100242,100243
100122, 100244,100245
100123, 100246,100247
100124, 100248,100249
100125, 100250,100251
100126, 100252,100253
100127, 100254,100255
100128, 100256,100257
100129, 100258,100259
100130, 100260,100261
100131, 100262,100263
100132, 100264,100265
100133, 100266,100267
100134, 100268,100269
100135, 100270,100271
100136, 100272,100273
100137, 100274,100275
*Solid Section, elset=EMBMESH_FIBERS, material=FIBER
0.0314159265358979
*End Part
*Assembly, name=Assembly
*Instance, name=PLATE-1, part=PLATE
*End Instance
*Nset, nset=LEFT, instance=PLATE-1
1, 5, 9, 13, 17, 21, 25, 29, 33, 37, 41, 45
49, 53, 57, 61
*Nset, nset=RIGHT, instance=PLATE-1
4, 8, 12, 16, 20, 24, 28, 32, 36, 40, 44, 48
52, 56, 60, 64
*Nset, nset=ORIGIN, instance=PLATE-1
1
*Nset, nset=ALLN, instance=PLATE-1
1, 2, 3, 4, 5, 6, 7, 8, 9, 10, 11, 12
13, 14, 15, 16, 17, 18, 19, 20, 21, 22, 23, 24
25, 26, 27, 28, 29, 30, 31, 32, 33, 34, 35, 36
37, 38, 39, 40, 41, 42, 43, 44, 45, 46, 47, 48
49, 50, 51, 52, 53, 54, 55, 56, 57, 58, 59, 60
61, 62, 63, 64
*Instance, name=EMBFIB-1, part=EMBFIB
*End Instance
*Embedded Element, host elset=PLATE-1.HOST
EMBFIB-1.EMBMESH_FIBERS
*End Assembly
*Material, name=MATRIX
*Density
1.2e-09,
*Elastic
3500, 0.35
*Material, name=FIBER
*Density
1.8e-09,
*Elastic
230000, 0.2
*Amplitude, name=RAMP, definition=SMOOTH STEP
0., 0., 3e-05, 1.
*Step, name=S1
*Dynamic, Explicit
, 3e-05
*Boundary
LEFT,1,1
ORIGIN,2,3
*Boundary, amplitude=RAMP
RIGHT,1,1,0.001
*Output, history, frequency=1000000
*Node Output, nset=ALLN
RF1, RF2, RF3, U1, U2, U3
*Output, field, number interval=5
*Node Output
U, RF
*Element Output, directions=YES
S, E
*Output, history, time interval=6e-07
*Energy Output
ALLIE, ALLKE, ALLWK, ALLVD, ALLAE, ETOTAL
*End Step