*Heading
*Preprint, echo=NO, model=YES, history=NO, contact=NO
** verification deck sens_refine_n3_src.inp
*Part, name=PLATE
*Node
1, 0, 0, 0
2, 0.666666666667, 0, 0
3, 1.33333333333, 0, 0
4, 2, 0, 0
5, 0, 0.666666666667, 0
6, 0.666666666667, 0.666666666667, 0
7, 1.33333333333, 0.666666666667, 0
8, 2, 0.666666666667, 0
9, 0, 1.33333333333, 0
10, 0.666666666667, 1.33333333333, 0
11, 1.33333333333, 1.33333333333, 0
12, 2, 1.33333333333, 0
13, 0, 2, 0
14, 0.666666666667, 2, 0
15, 1.33333333333, 2, 0
16, 2, 2, 0
17, 0, 0, 0.666666666667
18, 0.666666666667, 0, 0.666666666667
19, 1.33333333333, 0, 0.666666666667
20, 2, 0, 0.666666666667
21, 0, 0.666666666667, 0.666666666667
22, 0.666666666667, 0.666666666667, 0.666666666667
23, 1.33333333333, 0.666666666667, 0.666666666667
24, 2, 0.666666666667, 0.666666666667
25, 0, 1.33333333333, 0.666666666667
26, 0.666666666667, 1.33333333333, 0.666666666667
27, 1.33333333333, 1.33333333333, 0.666666666667
28, 2, 1.33333333333, 0.666666666667
29, 0, 2, 0.666666666667
30, 0.666666666667, 2, 0.666666666667
31, 1.33333333333, 2, 0.666666666667
32, 2, 2, 0.666666666667
33, 0, 0, 1.33333333333
34, 0.666666666667, 0, 1.33333333333
35, 1.33333333333, 0, 1.33333333333
36, 2, 0, 1.33333333333
37, 0, 0.666666666667, 1.33333333333
38, 0.666666666667, 0.666666666667, 1.33333333333
39, 1.33333333333, 0.666666666667, 1.33333333333
40, 2, 0.666666666667, 1.33333333333
41, 0, 1.33333333333, 1.33333333333
42, 0.666666666667, 1.33333333333, 1.33333333333
43, 1.33333333333, 1.33333333333, 1.33333333333
44, 2, 1.33333333333, 1.33333333333
45, 0, 2, 1.33333333333
46, 0.666666666667, 2, 1.33333333333
47, 1.33333333333, 2, 1.33333333333
48, 2, 2, 1.33333333333
49, 0, 0, 2
50, 0.666666666667, 0, 2
51, 1.33333333333, 0, 2
52, 2, 0, 2
53, 0, 0.666666666667, 2
54, 0.666666666667, 0.666666666667, 2
55, 1.33333333333, 0.666666666667, 2
56, 2, 0.666666666667, 2
57, 0, 1.33333333333, 2
58, 0.666666666667, 1.33333333333, 2
59, 1.33333333333, 1.33333333333, 2
60, 2, 1.33333333333, 2
61, 0, 2, 2
62, 0.666666666667, 2, 2
63, 1.33333333333, 2, 2
64, 2, 2, 2
*Element, type=C3D8R, elset=HOST
1, 1, 2, 6, 5, 17, 18, 22, 21
2, 2, 3, 7, 6, 18, 19, 23, 22
3, 3, 4, 8, 7, 19, 20, 24, 23
4, 5, 6, 10, 9, 21, 22, 26, 25
5, 6, 7, 11, 10, 22, 23, 27, 26
6, 7, 8, 12, 11, 23, 24, 28, 27
7, 9, 10, 14, 13, 25, 26, 30, 29
8, 10, 11, 15, 14, 26, 27, 31, 30
9, 11, 12, 16, 15, 27, 28, 32, 31
10, 17, 18, 22, 21, 33, 34, 38, 37
11, 18, 19, 23, 22, 34, 35, 39, 38
12, 19, 20, 24, 23, 35, 36, 40, 39
13, 21, 22, 26, 25, 37, 38, 42, 41
14, 22, 23, 27, 26, 38, 39, 43, 42
15, 23, 24, 28, 27, 39, 40, 44, 43
16, 25, 26, 30, 29, 41, 42, 46, 45
17, 26, 27, 31, 30, 42, 43, 47, 46
18, 27, 28, 32, 31, 43, 44, 48, 47
19, 33, 34, 38, 37, 49, 50, 54, 53
20, 34, 35, 39, 38, 50, 51, 55, 54
21, 35, 36, 40, 39, 51, 52, 56, 55
22, 37, 38, 42, 41, 53, 54, 58, 57
23, 38, 39, 43, 42, 54, 55, 59, 58
24, 39, 40, 44, 43, 55, 56, 60, 59
25, 41, 42, 46, 45, 57, 58, 62, 61
26, 42, 43, 47, 46, 58, 59, 63, 62
27, 43, 44, 48, 47, 59, 60, 64, 63
*Solid Section, elset=HOST, material=MATRIX
,
*End Part
*Assembly, name=Assembly
*Instance, name=PLATE-1, part=PLATE
*End Instance
*Nset, nset=LEFT, instance=PLATE-1
1, 5, 9, 13, 17, 21, 25, 29, 33, 37, 41, 45
49, 53, 57, 61
*Nset, nset=RIGHT, instance=PLATE-1
4, 8, 12, 16, 20, 24, 28, 32, 36, 40, 44, 48
52, 56, 60, 64
*Nset, nset=ORIGIN, instance=PLATE-1
1
*Nset, nset=ALLN, instance=PLATE-1
1, 2, 3, 4, 5, 6, 7, 8, 9, 10, 11, 12
13, 14, 15, 16, 17, 18, 19, 20, 21, 22, 23, 24
25, 26, 27, 28, 29, 30, 31, 32, 33, 34, 35, 36
37, 38, 39, 40, 41, 42, 43, 44, 45, 46, 47, 48
49, 50, 51, 52, 53, 54, 55, 56, 57, 58, 59, 60
61, 62, 63, 64
*End Assembly
