*Heading
*Preprint, echo=NO, model=YES, history=NO, contact=NO
** verification deck sens_refine_n2_src.inp
*Part, name=PLATE
*Node
1, 0, 0, 0
2, 1, 0, 0
3, 2, 0, 0
4, 0, 1, 0
5, 1, 1, 0
6, 2, 1, 0
7, 0, 2, 0
8, 1, 2, 0
9, 2, 2, 0
10, 0, 0, 1
11, 1, 0, 1
12, 2, 0, 1
13, 0, 1, 1
14, 1, 1, 1
15, 2, 1, 1
16, 0, 2, 1
17, 1, 2, 1
18, 2, 2, 1
19, 0, 0, 2
20, 1, 0, 2
21, 2, 0, 2
22, 0, 1, 2
23, 1, 1, 2
24, 2, 1, 2
25, 0, 2, 2
26, 1, 2, 2
27, 2, 2, 2
*Element, type=C3D8R, elset=HOST
1, 1, 2, 5, 4, 10, 11, 14, 13
2, 2, 3, 6, 5, 11, 12, 15, 14
3, 4, 5, 8, 7, 13, 14, 17, 16
4, 5, 6, 9, 8, 14, 15, 18, 17
5, 10, 11, 14, 13, 19, 20, 23, 22
6, 11, 12, 15, 14, 20, 21, 24, 23
7, 13, 14, 17, 16, 22, 23, 26, 25
8, 14, 15, 18, 17, 23, 24, 27, 26
*Solid Section, elset=HOST, material=MATRIX
,
*End Part
*Assembly, name=Assembly
*Instance, name=PLATE-1, part=PLATE
*End Instance
*Nset, nset=LEFT, instance=PLATE-1
1, 4, 7, 10, 13, 16, 19, 22, 25
*Nset, nset=RIGHT, instance=PLATE-1
3, 6, 9, 12, 15, 18, 21, 24, 27
*Nset, nset=ORIGIN, instance=PLATE-1
1
*Nset, nset=ALLN, instance=PLATE-1
1, 2, 3, 4, 5, 6, 7, 8, 9, 10, 11, 12
13, 14, 15, 16, 17, 18, 19, 20, 21, 22, 23, 24
25, 26, 27
*End Assembly
