*Heading
*Preprint, echo=NO, model=YES, history=NO, contact=NO
** verification deck vumat_compress_truss_src.inp
*Part, name=PLATE
*Node
1, 0, 0, 0
2, 1, 0, 0
3, 0, 1, 0
4, 1, 1, 0
5, 0, 0, 1
6, 1, 0, 1
7, 0, 1, 1
8, 1, 1, 1
*Element, type=C3D8R, elset=HOST
1, 1, 2, 4, 3, 5, 6, 8, 7
*Solid Section, elset=HOST, material=MATRIX
,
*End Part
*Part, name=EMBFIB
** embmesh generated fibers
*Node, nset=EMBMESH_NODES
100000, 0, 0.125, 0.125
100001, 1, 0.125, 0.125
100002, 0, 0.375, 0.125
100003, 1, 0.375, 0.125
100004, 0, 0.625, 0.125
100005, 1, 0.625, 0.125
100006, 0, 0.875, 0.125
100007, 1, 0.875, 0.125
100008, 0.125, 0, 0.375
100009, 0.125, 1, 0.375
100010, 0.375, 0, 0.375
100011, 0.375, 1, 0.375
100012, 0.625, 0, 0.375
100013, 0.625, 1, 0.375
100014, 0.875, 0, 0.375
100015, 0.875, 1, 0.375
100016, 0, 0.125, 0.625
100017, 1, 0.125, 0.625
100018, 0, 0.375, 0.625
100019, 1, 0.375, 0.625
100020, 0, 0.625, 0.625
100021, 1, 0.625, 0.625
100022, 0, 0.875, 0.625
100023, 1, 0.875, 0.625
100024, 0.125, 0, 0.875
100025, 0.125, 1, 0.875
100026, 0.375, 0, 0.875
100027, 0.375, 1, 0.875
100028, 0.625, 0, 0.875
100029, 0.625, 1, 0.875
100030, 0.875, 0, 0.875
100031, 0.875, 1, 0.875
*Element, type=T3D2, elset=EMBMESH_FIBERS
100000, 100000,100001
100001, 100002,100003
100002, 100004,100005
100003, 100006,100007
100004, 100008,100009
100005, 100010,100011
100006, 100012,100013
100007, 100014,100015
100008, 100016,100017
100009, 100018,100019
100010, 100020,100021
100011, 100022,100023
100012, 100024,100025
100013, 100026,100027
100014, 100028,100029
100015, 100030,100031
*Solid Section, elset=EMBMESH_FIBERS, material=FIBER
0.0490873852123405
*End Part
*Assembly, name=Assembly
*Instance, name=PLATE-1, part=PLATE
*End Instance
*Nset, nset=LEFT, instance=PLATE-1
1, 3, 5, 7
*Nset, nset=RIGHT, instance=PLATE-1
2, 4, 6, 8
*Nset, nset=BOTTOM, instance=PLATE-1
1, 2, 3, 4
*Nset, nset=TOP, instance=PLATE-1
5, 6, 7, 8
*Nset, nset=FRONT, instance=PLATE-1
1, 2, 5, 6
*Nset, nset=BACK, instance=PLATE-1
3, 4, 7, 8
*Nset, nset=ORIGIN, instance=PLATE-1
1
*Nset, nset=ALLN, instance=PLATE-1
1, 2, 3, 4, 5, 6, 7, 8
*Instance, name=EMBFIB-1, part=EMBFIB
*End Instance
*Embedded Element, host elset=PLATE-1.HOST
EMBFIB-1.EMBMESH_FIBERS
*End Assembly
*Material, name=MATRIX
*Density
1.2e-09,
*Elastic
3500, 0.35
*Material, name=FIBER
*Density
1.8e-09,
*Depvar, delete=1
1
*User Material, constants=2
230000, 3000
*Amplitude, name=RAMP, definition=SMOOTH STEP
0., 0., 5e-05, 1.
*Step, name=S1
*Dynamic, Explicit
, 5e-05
*Boundary
BOTTOM, 3, 3
LEFT, 1, 1
FRONT, 2, 2
*Boundary, amplitude=RAMP
TOP, 3, 3, -0.02
*Output, history, frequency=1000000
*Node Output, nset=ALLN
RF1, RF2, RF3, U1, U2, U3
*Output, field, number interval=5
*Node Output
U, RF
*Element Output, directions=YES
S, E
*Output, history, time interval=1e-06
*Energy Output
ALLIE, ALLKE, ALLWK, ALLVD, ALLAE, ETOTAL
*End Step