*Heading
*Preprint, echo=NO, model=YES, history=NO, contact=NO
*Part, name=PLATE
*Node
1, 2, 0, 0
2, 2.2, 0, 0
3, 2.4, 0, 0
4, 2.6, 0, 0
5, 2.8, 0, 0
6, 3, 0, 0
7, 1.93185165258, 0.517638090205, 0
8, 2.12503681784, 0.569401899226, 0
9, 2.31822198309, 0.621165708246, 0
10, 2.51140714835, 0.672929517267, 0
11, 2.70459231361, 0.724693326287, 0
12, 2.89777747887, 0.776457135308, 0
13, 1.73205080757, 1, 0
14, 1.90525588833, 1.1, 0
15, 2.07846096908, 1.2, 0
16, 2.25166604984, 1.3, 0
17, 2.4248711306, 1.4, 0
18, 2.59807621135, 1.5, 0
19, 1.41421356237, 1.41421356237, 0
20, 1.55563491861, 1.55563491861, 0
21, 1.69705627485, 1.69705627485, 0
22, 1.83847763109, 1.83847763109, 0
23, 1.97989898732, 1.97989898732, 0
24, 2.12132034356, 2.12132034356, 0
25, 1, 1.73205080757, 0
26, 1.1, 1.90525588833, 0
27, 1.2, 2.07846096908, 0
28, 1.3, 2.25166604984, 0
29, 1.4, 2.4248711306, 0
30, 1.5, 2.59807621135, 0
31, 0.517638090205, 1.93185165258, 0
32, 0.569401899226, 2.12503681784, 0
33, 0.621165708246, 2.31822198309, 0
34, 0.672929517267, 2.51140714835, 0
35, 0.724693326287, 2.70459231361, 0
36, 0.776457135308, 2.89777747887, 0
37, 1.22464679915e-16, 2, 0
38, 1.34711147906e-16, 2.2, 0
39, 1.46957615898e-16, 2.4, 0
40, 1.59204083889e-16, 2.6, 0
41, 1.71450551881e-16, 2.8, 0
42, 1.83697019872e-16, 3, 0
43, -0.517638090205, 1.93185165258, 0
44, -0.569401899226, 2.12503681784, 0
45, -0.621165708246, 2.31822198309, 0
46, -0.672929517267, 2.51140714835, 0
47, -0.724693326287, 2.70459231361, 0
48, -0.776457135308, 2.89777747887, 0
49, -1, 1.73205080757, 0
50, -1.1, 1.90525588833, 0
51, -1.2, 2.07846096908, 0
52, -1.3, 2.25166604984, 0
53, -1.4, 2.4248711306, 0
54, -1.5, 2.59807621135, 0
55, -1.41421356237, 1.41421356237, 0
56, -1.55563491861, 1.55563491861, 0
57, -1.69705627485, 1.69705627485, 0
58, -1.83847763109, 1.83847763109, 0
59, -1.97989898732, 1.97989898732, 0
60, -2.12132034356, 2.12132034356, 0
61, -1.73205080757, 1, 0
62, -1.90525588833, 1.1, 0
63, -2.07846096908, 1.2, 0
64, -2.25166604984, 1.3, 0
65, -2.4248711306, 1.4, 0
66, -2.59807621135, 1.5, 0
67, -1.93185165258, 0.517638090205, 0
68, -2.12503681784, 0.569401899226, 0
69, -2.31822198309, 0.621165708246, 0
70, -2.51140714835, 0.672929517267, 0
71, -2.70459231361, 0.724693326287, 0
72, -2.89777747887, 0.776457135308, 0
73, -2, 2.44929359829e-16, 0
74, -2.2, 2.69422295812e-16, 0
75, -2.4, 2.93915231795e-16, 0
76, -2.6, 3.18408167778e-16, 0
77, -2.8, 3.42901103761e-16, 0
78, -3, 3.67394039744e-16, 0
79, -1.93185165258, -0.517638090205, 0
80, -2.12503681784, -0.569401899226, 0
81, -2.31822198309, -0.621165708246, 0
82, -2.51140714835, -0.672929517267, 0
83, -2.70459231361, -0.724693326287, 0
84, -2.89777747887, -0.776457135308, 0
85, -1.73205080757, -1, 0
86, -1.90525588833, -1.1, 0
87, -2.07846096908, -1.2, 0
88, -2.25166604984, -1.3, 0
89, -2.4248711306, -1.4, 0
90, -2.59807621135, -1.5, 0
91, -1.41421356237, -1.41421356237, 0
92, -1.55563491861, -1.55563491861, 0
93, -1.69705627485, -1.69705627485, 0
94, -1.83847763109, -1.83847763109, 0
95, -1.97989898732, -1.97989898732, 0
96, -2.12132034356, -2.12132034356, 0
97, -1, -1.73205080757, 0
98, -1.1, -1.90525588833, 0
99, -1.2, -2.07846096908, 0
100, -1.3, -2.25166604984, 0
101, -1.4, -2.4248711306, 0
102, -1.5, -2.59807621135, 0
103, -0.517638090205, -1.93185165258, 0
104, -0.569401899226, -2.12503681784, 0
105, -0.621165708246, -2.31822198309, 0
106, -0.672929517267, -2.51140714835, 0
107, -0.724693326287, -2.70459231361, 0
108, -0.776457135308, -2.89777747887, 0
109, -3.67394039744e-16, -2, 0
110, -4.04133443719e-16, -2.2, 0
111, -4.40872847693e-16, -2.4, 0
112, -4.77612251667e-16, -2.6, 0
113, -5.14351655642e-16, -2.8, 0
114, -5.51091059616e-16, -3, 0
115, 0.517638090205, -1.93185165258, 0
116, 0.569401899226, -2.12503681784, 0
117, 0.621165708246, -2.31822198309, 0
118, 0.672929517267, -2.51140714835, 0
119, 0.724693326287, -2.70459231361, 0
120, 0.776457135308, -2.89777747887, 0
121, 1, -1.73205080757, 0
122, 1.1, -1.90525588833, 0
123, 1.2, -2.07846096908, 0
124, 1.3, -2.25166604984, 0
125, 1.4, -2.4248711306, 0
126, 1.5, -2.59807621135, 0
127, 1.41421356237, -1.41421356237, 0
128, 1.55563491861, -1.55563491861, 0
129, 1.69705627485, -1.69705627485, 0
130, 1.83847763109, -1.83847763109, 0
131, 1.97989898732, -1.97989898732, 0
132, 2.12132034356, -2.12132034356, 0
133, 1.73205080757, -1, 0
134, 1.90525588833, -1.1, 0
135, 2.07846096908, -1.2, 0
136, 2.25166604984, -1.3, 0
137, 2.4248711306, -1.4, 0
138, 2.59807621135, -1.5, 0
139, 1.93185165258, -0.517638090205, 0
140, 2.12503681784, -0.569401899226, 0
141, 2.31822198309, -0.621165708246, 0
142, 2.51140714835, -0.672929517267, 0
143, 2.70459231361, -0.724693326287, 0
144, 2.89777747887, -0.776457135308, 0
145, 2, 0, 0.5
146, 2.2, 0, 0.5
147, 2.4, 0, 0.5
148, 2.6, 0, 0.5
149, 2.8, 0, 0.5
150, 3, 0, 0.5
151, 1.93185165258, 0.517638090205, 0.5
152, 2.12503681784, 0.569401899226, 0.5
153, 2.31822198309, 0.621165708246, 0.5
154, 2.51140714835, 0.672929517267, 0.5
155, 2.70459231361, 0.724693326287, 0.5
156, 2.89777747887, 0.776457135308, 0.5
157, 1.73205080757, 1, 0.5
158, 1.90525588833, 1.1, 0.5
159, 2.07846096908, 1.2, 0.5
160, 2.25166604984, 1.3, 0.5
161, 2.4248711306, 1.4, 0.5
162, 2.59807621135, 1.5, 0.5
163, 1.41421356237, 1.41421356237, 0.5
164, 1.55563491861, 1.55563491861, 0.5
165, 1.69705627485, 1.69705627485, 0.5
166, 1.83847763109, 1.83847763109, 0.5
167, 1.97989898732, 1.97989898732, 0.5
168, 2.12132034356, 2.12132034356, 0.5
169, 1, 1.73205080757, 0.5
170, 1.1, 1.90525588833, 0.5
171, 1.2, 2.07846096908, 0.5
172, 1.3, 2.25166604984, 0.5
173, 1.4, 2.4248711306, 0.5
174, 1.5, 2.59807621135, 0.5
175, 0.517638090205, 1.93185165258, 0.5
176, 0.569401899226, 2.12503681784, 0.5
177, 0.621165708246, 2.31822198309, 0.5
178, 0.672929517267, 2.51140714835, 0.5
179, 0.724693326287, 2.70459231361, 0.5
180, 0.776457135308, 2.89777747887, 0.5
181, 1.22464679915e-16, 2, 0.5
182, 1.34711147906e-16, 2.2, 0.5
183, 1.46957615898e-16, 2.4, 0.5
184, 1.59204083889e-16, 2.6, 0.5
185, 1.71450551881e-16, 2.8, 0.5
186, 1.83697019872e-16, 3, 0.5
187, -0.517638090205, 1.93185165258, 0.5
188, -0.569401899226, 2.12503681784, 0.5
189, -0.621165708246, 2.31822198309, 0.5
190, -0.672929517267, 2.51140714835, 0.5
191, -0.724693326287, 2.70459231361, 0.5
192, -0.776457135308, 2.89777747887, 0.5
193, -1, 1.73205080757, 0.5
194, -1.1, 1.90525588833, 0.5
195, -1.2, 2.07846096908, 0.5
196, -1.3, 2.25166604984, 0.5
197, -1.4, 2.4248711306, 0.5
198, -1.5, 2.59807621135, 0.5
199, -1.41421356237, 1.41421356237, 0.5
200, -1.55563491861, 1.55563491861, 0.5
201, -1.69705627485, 1.69705627485, 0.5
202, -1.83847763109, 1.83847763109, 0.5
203, -1.97989898732, 1.97989898732, 0.5
204, -2.12132034356, 2.12132034356, 0.5
205, -1.73205080757, 1, 0.5
206, -1.90525588833, 1.1, 0.5
207, -2.07846096908, 1.2, 0.5
208, -2.25166604984, 1.3, 0.5
209, -2.4248711306, 1.4, 0.5
210, -2.59807621135, 1.5, 0.5
211, -1.93185165258, 0.517638090205, 0.5
212, -2.12503681784, 0.569401899226, 0.5
213, -2.31822198309, 0.621165708246, 0.5
214, -2.51140714835, 0.672929517267, 0.5
215, -2.70459231361, 0.724693326287, 0.5
216, -2.89777747887, 0.776457135308, 0.5
217, -2, 2.44929359829e-16, 0.5
218, -2.2, 2.69422295812e-16, 0.5
219, -2.4, 2.93915231795e-16, 0.5
220, -2.6, 3.18408167778e-16, 0.5
221, -2.8, 3.42901103761e-16, 0.5
222, -3, 3.67394039744e-16, 0.5
223, -1.93185165258, -0.517638090205, 0.5
224, -2.12503681784, -0.569401899226, 0.5
225, -2.31822198309, -0.621165708246, 0.5
226, -2.51140714835, -0.672929517267, 0.5
227, -2.70459231361, -0.724693326287, 0.5
228, -2.89777747887, -0.776457135308, 0.5
229, -1.73205080757, -1, 0.5
230, -1.90525588833, -1.1, 0.5
231, -2.07846096908, -1.2, 0.5
232, -2.25166604984, -1.3, 0.5
233, -2.4248711306, -1.4, 0.5
234, -2.59807621135, -1.5, 0.5
235, -1.41421356237, -1.41421356237, 0.5
236, -1.55563491861, -1.55563491861, 0.5
237, -1.69705627485, -1.69705627485, 0.5
238, -1.83847763109, -1.83847763109, 0.5
239, -1.97989898732, -1.97989898732, 0.5
240, -2.12132034356, -2.12132034356, 0.5
241, -1, -1.73205080757, 0.5
242, -1.1, -1.90525588833, 0.5
243, -1.2, -2.07846096908, 0.5
244, -1.3, -2.25166604984, 0.5
245, -1.4, -2.4248711306, 0.5
246, -1.5, -2.59807621135, 0.5
247, -0.517638090205, -1.93185165258, 0.5
248, -0.569401899226, -2.12503681784, 0.5
249, -0.621165708246, -2.31822198309, 0.5
250, -0.672929517267, -2.51140714835, 0.5
251, -0.724693326287, -2.70459231361, 0.5
252, -0.776457135308, -2.89777747887, 0.5
253, -3.67394039744e-16, -2, 0.5
254, -4.04133443719e-16, -2.2, 0.5
255, -4.40872847693e-16, -2.4, 0.5
256, -4.77612251667e-16, -2.6, 0.5
257, -5.14351655642e-16, -2.8, 0.5
258, -5.51091059616e-16, -3, 0.5
259, 0.517638090205, -1.93185165258, 0.5
260, 0.569401899226, -2.12503681784, 0.5
261, 0.621165708246, -2.31822198309, 0.5
262, 0.672929517267, -2.51140714835, 0.5
263, 0.724693326287, -2.70459231361, 0.5
264, 0.776457135308, -2.89777747887, 0.5
265, 1, -1.73205080757, 0.5
266, 1.1, -1.90525588833, 0.5
267, 1.2, -2.07846096908, 0.5
268, 1.3, -2.25166604984, 0.5
269, 1.4, -2.4248711306, 0.5
270, 1.5, -2.59807621135, 0.5
271, 1.41421356237, -1.41421356237, 0.5
272, 1.55563491861, -1.55563491861, 0.5
273, 1.69705627485, -1.69705627485, 0.5
274, 1.83847763109, -1.83847763109, 0.5
275, 1.97989898732, -1.97989898732, 0.5
276, 2.12132034356, -2.12132034356, 0.5
277, 1.73205080757, -1, 0.5
278, 1.90525588833, -1.1, 0.5
279, 2.07846096908, -1.2, 0.5
280, 2.25166604984, -1.3, 0.5
281, 2.4248711306, -1.4, 0.5
282, 2.59807621135, -1.5, 0.5
283, 1.93185165258, -0.517638090205, 0.5
284, 2.12503681784, -0.569401899226, 0.5
285, 2.31822198309, -0.621165708246, 0.5
286, 2.51140714835, -0.672929517267, 0.5
287, 2.70459231361, -0.724693326287, 0.5
288, 2.89777747887, -0.776457135308, 0.5
289, 2, 0, 1
290, 2.2, 0, 1
291, 2.4, 0, 1
292, 2.6, 0, 1
293, 2.8, 0, 1
294, 3, 0, 1
295, 1.93185165258, 0.517638090205, 1
296, 2.12503681784, 0.569401899226, 1
297, 2.31822198309, 0.621165708246, 1
298, 2.51140714835, 0.672929517267, 1
299, 2.70459231361, 0.724693326287, 1
300, 2.89777747887, 0.776457135308, 1
301, 1.73205080757, 1, 1
302, 1.90525588833, 1.1, 1
303, 2.07846096908, 1.2, 1
304, 2.25166604984, 1.3, 1
305, 2.4248711306, 1.4, 1
306, 2.59807621135, 1.5, 1
307, 1.41421356237, 1.41421356237, 1
308, 1.55563491861, 1.55563491861, 1
309, 1.69705627485, 1.69705627485, 1
310, 1.83847763109, 1.83847763109, 1
311, 1.97989898732, 1.97989898732, 1
312, 2.12132034356, 2.12132034356, 1
313, 1, 1.73205080757, 1
314, 1.1, 1.90525588833, 1
315, 1.2, 2.07846096908, 1
316, 1.3, 2.25166604984, 1
317, 1.4, 2.4248711306, 1
318, 1.5, 2.59807621135, 1
319, 0.517638090205, 1.93185165258, 1
320, 0.569401899226, 2.12503681784, 1
321, 0.621165708246, 2.31822198309, 1
322, 0.672929517267, 2.51140714835, 1
323, 0.724693326287, 2.70459231361, 1
324, 0.776457135308, 2.89777747887, 1
325, 1.22464679915e-16, 2, 1
326, 1.34711147906e-16, 2.2, 1
327, 1.46957615898e-16, 2.4, 1
328, 1.59204083889e-16, 2.6, 1
329, 1.71450551881e-16, 2.8, 1
330, 1.83697019872e-16, 3, 1
331, -0.517638090205, 1.93185165258, 1
332, -0.569401899226, 2.12503681784, 1
333, -0.621165708246, 2.31822198309, 1
334, -0.672929517267, 2.51140714835, 1
335, -0.724693326287, 2.70459231361, 1
336, -0.776457135308, 2.89777747887, 1
337, -1, 1.73205080757, 1
338, -1.1, 1.90525588833, 1
339, -1.2, 2.07846096908, 1
340, -1.3, 2.25166604984, 1
341, -1.4, 2.4248711306, 1
342, -1.5, 2.59807621135, 1
343, -1.41421356237, 1.41421356237, 1
344, -1.55563491861, 1.55563491861, 1
345, -1.69705627485, 1.69705627485, 1
346, -1.83847763109, 1.83847763109, 1
347, -1.97989898732, 1.97989898732, 1
348, -2.12132034356, 2.12132034356, 1
349, -1.73205080757, 1, 1
350, -1.90525588833, 1.1, 1
351, -2.07846096908, 1.2, 1
352, -2.25166604984, 1.3, 1
353, -2.4248711306, 1.4, 1
354, -2.59807621135, 1.5, 1
355, -1.93185165258, 0.517638090205, 1
356, -2.12503681784, 0.569401899226, 1
357, -2.31822198309, 0.621165708246, 1
358, -2.51140714835, 0.672929517267, 1
359, -2.70459231361, 0.724693326287, 1
360, -2.89777747887, 0.776457135308, 1
361, -2, 2.44929359829e-16, 1
362, -2.2, 2.69422295812e-16, 1
363, -2.4, 2.93915231795e-16, 1
364, -2.6, 3.18408167778e-16, 1
365, -2.8, 3.42901103761e-16, 1
366, -3, 3.67394039744e-16, 1
367, -1.93185165258, -0.517638090205, 1
368, -2.12503681784, -0.569401899226, 1
369, -2.31822198309, -0.621165708246, 1
370, -2.51140714835, -0.672929517267, 1
371, -2.70459231361, -0.724693326287, 1
372, -2.89777747887, -0.776457135308, 1
373, -1.73205080757, -1, 1
374, -1.90525588833, -1.1, 1
375, -2.07846096908, -1.2, 1
376, -2.25166604984, -1.3, 1
377, -2.4248711306, -1.4, 1
378, -2.59807621135, -1.5, 1
379, -1.41421356237, -1.41421356237, 1
380, -1.55563491861, -1.55563491861, 1
381, -1.69705627485, -1.69705627485, 1
382, -1.83847763109, -1.83847763109, 1
383, -1.97989898732, -1.97989898732, 1
384, -2.12132034356, -2.12132034356, 1
385, -1, -1.73205080757, 1
386, -1.1, -1.90525588833, 1
387, -1.2, -2.07846096908, 1
388, -1.3, -2.25166604984, 1
389, -1.4, -2.4248711306, 1
390, -1.5, -2.59807621135, 1
391, -0.517638090205, -1.93185165258, 1
392, -0.569401899226, -2.12503681784, 1
393, -0.621165708246, -2.31822198309, 1
394, -0.672929517267, -2.51140714835, 1
395, -0.724693326287, -2.70459231361, 1
396, -0.776457135308, -2.89777747887, 1
397, -3.67394039744e-16, -2, 1
398, -4.04133443719e-16, -2.2, 1
399, -4.40872847693e-16, -2.4, 1
400, -4.77612251667e-16, -2.6, 1
401, -5.14351655642e-16, -2.8, 1
402, -5.51091059616e-16, -3, 1
403, 0.517638090205, -1.93185165258, 1
404, 0.569401899226, -2.12503681784, 1
405, 0.621165708246, -2.31822198309, 1
406, 0.672929517267, -2.51140714835, 1
407, 0.724693326287, -2.70459231361, 1
408, 0.776457135308, -2.89777747887, 1
409, 1, -1.73205080757, 1
410, 1.1, -1.90525588833, 1
411, 1.2, -2.07846096908, 1
412, 1.3, -2.25166604984, 1
413, 1.4, -2.4248711306, 1
414, 1.5, -2.59807621135, 1
415, 1.41421356237, -1.41421356237, 1
416, 1.55563491861, -1.55563491861, 1
417, 1.69705627485, -1.69705627485, 1
418, 1.83847763109, -1.83847763109, 1
419, 1.97989898732, -1.97989898732, 1
420, 2.12132034356, -2.12132034356, 1
421, 1.73205080757, -1, 1
422, 1.90525588833, -1.1, 1
423, 2.07846096908, -1.2, 1
424, 2.25166604984, -1.3, 1
425, 2.4248711306, -1.4, 1
426, 2.59807621135, -1.5, 1
427, 1.93185165258, -0.517638090205, 1
428, 2.12503681784, -0.569401899226, 1
429, 2.31822198309, -0.621165708246, 1
430, 2.51140714835, -0.672929517267, 1
431, 2.70459231361, -0.724693326287, 1
432, 2.89777747887, -0.776457135308, 1
433, 2, 0, 1.5
434, 2.2, 0, 1.5
435, 2.4, 0, 1.5
436, 2.6, 0, 1.5
437, 2.8, 0, 1.5
438, 3, 0, 1.5
439, 1.93185165258, 0.517638090205, 1.5
440, 2.12503681784, 0.569401899226, 1.5
441, 2.31822198309, 0.621165708246, 1.5
442, 2.51140714835, 0.672929517267, 1.5
443, 2.70459231361, 0.724693326287, 1.5
444, 2.89777747887, 0.776457135308, 1.5
445, 1.73205080757, 1, 1.5
446, 1.90525588833, 1.1, 1.5
447, 2.07846096908, 1.2, 1.5
448, 2.25166604984, 1.3, 1.5
449, 2.4248711306, 1.4, 1.5
450, 2.59807621135, 1.5, 1.5
451, 1.41421356237, 1.41421356237, 1.5
452, 1.55563491861, 1.55563491861, 1.5
453, 1.69705627485, 1.69705627485, 1.5
454, 1.83847763109, 1.83847763109, 1.5
455, 1.97989898732, 1.97989898732, 1.5
456, 2.12132034356, 2.12132034356, 1.5
457, 1, 1.73205080757, 1.5
458, 1.1, 1.90525588833, 1.5
459, 1.2, 2.07846096908, 1.5
460, 1.3, 2.25166604984, 1.5
461, 1.4, 2.4248711306, 1.5
462, 1.5, 2.59807621135, 1.5
463, 0.517638090205, 1.93185165258, 1.5
464, 0.569401899226, 2.12503681784, 1.5
465, 0.621165708246, 2.31822198309, 1.5
466, 0.672929517267, 2.51140714835, 1.5
467, 0.724693326287, 2.70459231361, 1.5
468, 0.776457135308, 2.89777747887, 1.5
469, 1.22464679915e-16, 2, 1.5
470, 1.34711147906e-16, 2.2, 1.5
471, 1.46957615898e-16, 2.4, 1.5
472, 1.59204083889e-16, 2.6, 1.5
473, 1.71450551881e-16, 2.8, 1.5
474, 1.83697019872e-16, 3, 1.5
475, -0.517638090205, 1.93185165258, 1.5
476, -0.569401899226, 2.12503681784, 1.5
477, -0.621165708246, 2.31822198309, 1.5
478, -0.672929517267, 2.51140714835, 1.5
479, -0.724693326287, 2.70459231361, 1.5
480, -0.776457135308, 2.89777747887, 1.5
481, -1, 1.73205080757, 1.5
482, -1.1, 1.90525588833, 1.5
483, -1.2, 2.07846096908, 1.5
484, -1.3, 2.25166604984, 1.5
485, -1.4, 2.4248711306, 1.5
486, -1.5, 2.59807621135, 1.5
487, -1.41421356237, 1.41421356237, 1.5
488, -1.55563491861, 1.55563491861, 1.5
489, -1.69705627485, 1.69705627485, 1.5
490, -1.83847763109, 1.83847763109, 1.5
491, -1.97989898732, 1.97989898732, 1.5
492, -2.12132034356, 2.12132034356, 1.5
493, -1.73205080757, 1, 1.5
494, -1.90525588833, 1.1, 1.5
495, -2.07846096908, 1.2, 1.5
496, -2.25166604984, 1.3, 1.5
497, -2.4248711306, 1.4, 1.5
498, -2.59807621135, 1.5, 1.5
499, -1.93185165258, 0.517638090205, 1.5
500, -2.12503681784, 0.569401899226, 1.5
501, -2.31822198309, 0.621165708246, 1.5
502, -2.51140714835, 0.672929517267, 1.5
503, -2.70459231361, 0.724693326287, 1.5
504, -2.89777747887, 0.776457135308, 1.5
505, -2, 2.44929359829e-16, 1.5
506, -2.2, 2.69422295812e-16, 1.5
507, -2.4, 2.93915231795e-16, 1.5
508, -2.6, 3.18408167778e-16, 1.5
509, -2.8, 3.42901103761e-16, 1.5
510, -3, 3.67394039744e-16, 1.5
511, -1.93185165258, -0.517638090205, 1.5
512, -2.12503681784, -0.569401899226, 1.5
513, -2.31822198309, -0.621165708246, 1.5
514, -2.51140714835, -0.672929517267, 1.5
515, -2.70459231361, -0.724693326287, 1.5
516, -2.89777747887, -0.776457135308, 1.5
517, -1.73205080757, -1, 1.5
518, -1.90525588833, -1.1, 1.5
519, -2.07846096908, -1.2, 1.5
520, -2.25166604984, -1.3, 1.5
521, -2.4248711306, -1.4, 1.5
522, -2.59807621135, -1.5, 1.5
523, -1.41421356237, -1.41421356237, 1.5
524, -1.55563491861, -1.55563491861, 1.5
525, -1.69705627485, -1.69705627485, 1.5
526, -1.83847763109, -1.83847763109, 1.5
527, -1.97989898732, -1.97989898732, 1.5
528, -2.12132034356, -2.12132034356, 1.5
529, -1, -1.73205080757, 1.5
530, -1.1, -1.90525588833, 1.5
531, -1.2, -2.07846096908, 1.5
532, -1.3, -2.25166604984, 1.5
533, -1.4, -2.4248711306, 1.5
534, -1.5, -2.59807621135, 1.5
535, -0.517638090205, -1.93185165258, 1.5
536, -0.569401899226, -2.12503681784, 1.5
537, -0.621165708246, -2.31822198309, 1.5
538, -0.672929517267, -2.51140714835, 1.5
539, -0.724693326287, -2.70459231361, 1.5
540, -0.776457135308, -2.89777747887, 1.5
541, -3.67394039744e-16, -2, 1.5
542, -4.04133443719e-16, -2.2, 1.5
543, -4.40872847693e-16, -2.4, 1.5
544, -4.77612251667e-16, -2.6, 1.5
545, -5.14351655642e-16, -2.8, 1.5
546, -5.51091059616e-16, -3, 1.5
547, 0.517638090205, -1.93185165258, 1.5
548, 0.569401899226, -2.12503681784, 1.5
549, 0.621165708246, -2.31822198309, 1.5
550, 0.672929517267, -2.51140714835, 1.5
551, 0.724693326287, -2.70459231361, 1.5
552, 0.776457135308, -2.89777747887, 1.5
553, 1, -1.73205080757, 1.5
554, 1.1, -1.90525588833, 1.5
555, 1.2, -2.07846096908, 1.5
556, 1.3, -2.25166604984, 1.5
557, 1.4, -2.4248711306, 1.5
558, 1.5, -2.59807621135, 1.5
559, 1.41421356237, -1.41421356237, 1.5
560, 1.55563491861, -1.55563491861, 1.5
561, 1.69705627485, -1.69705627485, 1.5
562, 1.83847763109, -1.83847763109, 1.5
563, 1.97989898732, -1.97989898732, 1.5
564, 2.12132034356, -2.12132034356, 1.5
565, 1.73205080757, -1, 1.5
566, 1.90525588833, -1.1, 1.5
567, 2.07846096908, -1.2, 1.5
568, 2.25166604984, -1.3, 1.5
569, 2.4248711306, -1.4, 1.5
570, 2.59807621135, -1.5, 1.5
571, 1.93185165258, -0.517638090205, 1.5
572, 2.12503681784, -0.569401899226, 1.5
573, 2.31822198309, -0.621165708246, 1.5
574, 2.51140714835, -0.672929517267, 1.5
575, 2.70459231361, -0.724693326287, 1.5
576, 2.89777747887, -0.776457135308, 1.5
577, 2, 0, 2
578, 2.2, 0, 2
579, 2.4, 0, 2
580, 2.6, 0, 2
581, 2.8, 0, 2
582, 3, 0, 2
583, 1.93185165258, 0.517638090205, 2
584, 2.12503681784, 0.569401899226, 2
585, 2.31822198309, 0.621165708246, 2
586, 2.51140714835, 0.672929517267, 2
587, 2.70459231361, 0.724693326287, 2
588, 2.89777747887, 0.776457135308, 2
589, 1.73205080757, 1, 2
590, 1.90525588833, 1.1, 2
591, 2.07846096908, 1.2, 2
592, 2.25166604984, 1.3, 2
593, 2.4248711306, 1.4, 2
594, 2.59807621135, 1.5, 2
595, 1.41421356237, 1.41421356237, 2
596, 1.55563491861, 1.55563491861, 2
597, 1.69705627485, 1.69705627485, 2
598, 1.83847763109, 1.83847763109, 2
599, 1.97989898732, 1.97989898732, 2
600, 2.12132034356, 2.12132034356, 2
601, 1, 1.73205080757, 2
602, 1.1, 1.90525588833, 2
603, 1.2, 2.07846096908, 2
604, 1.3, 2.25166604984, 2
605, 1.4, 2.4248711306, 2
606, 1.5, 2.59807621135, 2
607, 0.517638090205, 1.93185165258, 2
608, 0.569401899226, 2.12503681784, 2
609, 0.621165708246, 2.31822198309, 2
610, 0.672929517267, 2.51140714835, 2
611, 0.724693326287, 2.70459231361, 2
612, 0.776457135308, 2.89777747887, 2
613, 1.22464679915e-16, 2, 2
614, 1.34711147906e-16, 2.2, 2
615, 1.46957615898e-16, 2.4, 2
616, 1.59204083889e-16, 2.6, 2
617, 1.71450551881e-16, 2.8, 2
618, 1.83697019872e-16, 3, 2
619, -0.517638090205, 1.93185165258, 2
620, -0.569401899226, 2.12503681784, 2
621, -0.621165708246, 2.31822198309, 2
622, -0.672929517267, 2.51140714835, 2
623, -0.724693326287, 2.70459231361, 2
624, -0.776457135308, 2.89777747887, 2
625, -1, 1.73205080757, 2
626, -1.1, 1.90525588833, 2
627, -1.2, 2.07846096908, 2
628, -1.3, 2.25166604984, 2
629, -1.4, 2.4248711306, 2
630, -1.5, 2.59807621135, 2
631, -1.41421356237, 1.41421356237, 2
632, -1.55563491861, 1.55563491861, 2
633, -1.69705627485, 1.69705627485, 2
634, -1.83847763109, 1.83847763109, 2
635, -1.97989898732, 1.97989898732, 2
636, -2.12132034356, 2.12132034356, 2
637, -1.73205080757, 1, 2
638, -1.90525588833, 1.1, 2
639, -2.07846096908, 1.2, 2
640, -2.25166604984, 1.3, 2
641, -2.4248711306, 1.4, 2
642, -2.59807621135, 1.5, 2
643, -1.93185165258, 0.517638090205, 2
644, -2.12503681784, 0.569401899226, 2
645, -2.31822198309, 0.621165708246, 2
646, -2.51140714835, 0.672929517267, 2
647, -2.70459231361, 0.724693326287, 2
648, -2.89777747887, 0.776457135308, 2
649, -2, 2.44929359829e-16, 2
650, -2.2, 2.69422295812e-16, 2
651, -2.4, 2.93915231795e-16, 2
652, -2.6, 3.18408167778e-16, 2
653, -2.8, 3.42901103761e-16, 2
654, -3, 3.67394039744e-16, 2
655, -1.93185165258, -0.517638090205, 2
656, -2.12503681784, -0.569401899226, 2
657, -2.31822198309, -0.621165708246, 2
658, -2.51140714835, -0.672929517267, 2
659, -2.70459231361, -0.724693326287, 2
660, -2.89777747887, -0.776457135308, 2
661, -1.73205080757, -1, 2
662, -1.90525588833, -1.1, 2
663, -2.07846096908, -1.2, 2
664, -2.25166604984, -1.3, 2
665, -2.4248711306, -1.4, 2
666, -2.59807621135, -1.5, 2
667, -1.41421356237, -1.41421356237, 2
668, -1.55563491861, -1.55563491861, 2
669, -1.69705627485, -1.69705627485, 2
670, -1.83847763109, -1.83847763109, 2
671, -1.97989898732, -1.97989898732, 2
672, -2.12132034356, -2.12132034356, 2
673, -1, -1.73205080757, 2
674, -1.1, -1.90525588833, 2
675, -1.2, -2.07846096908, 2
676, -1.3, -2.25166604984, 2
677, -1.4, -2.4248711306, 2
678, -1.5, -2.59807621135, 2
679, -0.517638090205, -1.93185165258, 2
680, -0.569401899226, -2.12503681784, 2
681, -0.621165708246, -2.31822198309, 2
682, -0.672929517267, -2.51140714835, 2
683, -0.724693326287, -2.70459231361, 2
684, -0.776457135308, -2.89777747887, 2
685, -3.67394039744e-16, -2, 2
686, -4.04133443719e-16, -2.2, 2
687, -4.40872847693e-16, -2.4, 2
688, -4.77612251667e-16, -2.6, 2
689, -5.14351655642e-16, -2.8, 2
690, -5.51091059616e-16, -3, 2
691, 0.517638090205, -1.93185165258, 2
692, 0.569401899226, -2.12503681784, 2
693, 0.621165708246, -2.31822198309, 2
694, 0.672929517267, -2.51140714835, 2
695, 0.724693326287, -2.70459231361, 2
696, 0.776457135308, -2.89777747887, 2
697, 1, -1.73205080757, 2
698, 1.1, -1.90525588833, 2
699, 1.2, -2.07846096908, 2
700, 1.3, -2.25166604984, 2
701, 1.4, -2.4248711306, 2
702, 1.5, -2.59807621135, 2
703, 1.41421356237, -1.41421356237, 2
704, 1.55563491861, -1.55563491861, 2
705, 1.69705627485, -1.69705627485, 2
706, 1.83847763109, -1.83847763109, 2
707, 1.97989898732, -1.97989898732, 2
708, 2.12132034356, -2.12132034356, 2
709, 1.73205080757, -1, 2
710, 1.90525588833, -1.1, 2
711, 2.07846096908, -1.2, 2
712, 2.25166604984, -1.3, 2
713, 2.4248711306, -1.4, 2
714, 2.59807621135, -1.5, 2
715, 1.93185165258, -0.517638090205, 2
716, 2.12503681784, -0.569401899226, 2
717, 2.31822198309, -0.621165708246, 2
718, 2.51140714835, -0.672929517267, 2
719, 2.70459231361, -0.724693326287, 2
720, 2.89777747887, -0.776457135308, 2
721, 2, 0, 2.5
722, 2.2, 0, 2.5
723, 2.4, 0, 2.5
724, 2.6, 0, 2.5
725, 2.8, 0, 2.5
726, 3, 0, 2.5
727, 1.93185165258, 0.517638090205, 2.5
728, 2.12503681784, 0.569401899226, 2.5
729, 2.31822198309, 0.621165708246, 2.5
730, 2.51140714835, 0.672929517267, 2.5
731, 2.70459231361, 0.724693326287, 2.5
732, 2.89777747887, 0.776457135308, 2.5
733, 1.73205080757, 1, 2.5
734, 1.90525588833, 1.1, 2.5
735, 2.07846096908, 1.2, 2.5
736, 2.25166604984, 1.3, 2.5
737, 2.4248711306, 1.4, 2.5
738, 2.59807621135, 1.5, 2.5
739, 1.41421356237, 1.41421356237, 2.5
740, 1.55563491861, 1.55563491861, 2.5
741, 1.69705627485, 1.69705627485, 2.5
742, 1.83847763109, 1.83847763109, 2.5
743, 1.97989898732, 1.97989898732, 2.5
744, 2.12132034356, 2.12132034356, 2.5
745, 1, 1.73205080757, 2.5
746, 1.1, 1.90525588833, 2.5
747, 1.2, 2.07846096908, 2.5
748, 1.3, 2.25166604984, 2.5
749, 1.4, 2.4248711306, 2.5
750, 1.5, 2.59807621135, 2.5
751, 0.517638090205, 1.93185165258, 2.5
752, 0.569401899226, 2.12503681784, 2.5
753, 0.621165708246, 2.31822198309, 2.5
754, 0.672929517267, 2.51140714835, 2.5
755, 0.724693326287, 2.70459231361, 2.5
756, 0.776457135308, 2.89777747887, 2.5
757, 1.22464679915e-16, 2, 2.5
758, 1.34711147906e-16, 2.2, 2.5
759, 1.46957615898e-16, 2.4, 2.5
760, 1.59204083889e-16, 2.6, 2.5
761, 1.71450551881e-16, 2.8, 2.5
762, 1.83697019872e-16, 3, 2.5
763, -0.517638090205, 1.93185165258, 2.5
764, -0.569401899226, 2.12503681784, 2.5
765, -0.621165708246, 2.31822198309, 2.5
766, -0.672929517267, 2.51140714835, 2.5
767, -0.724693326287, 2.70459231361, 2.5
768, -0.776457135308, 2.89777747887, 2.5
769, -1, 1.73205080757, 2.5
770, -1.1, 1.90525588833, 2.5
771, -1.2, 2.07846096908, 2.5
772, -1.3, 2.25166604984, 2.5
773, -1.4, 2.4248711306, 2.5
774, -1.5, 2.59807621135, 2.5
775, -1.41421356237, 1.41421356237, 2.5
776, -1.55563491861, 1.55563491861, 2.5
777, -1.69705627485, 1.69705627485, 2.5
778, -1.83847763109, 1.83847763109, 2.5
779, -1.97989898732, 1.97989898732, 2.5
780, -2.12132034356, 2.12132034356, 2.5
781, -1.73205080757, 1, 2.5
782, -1.90525588833, 1.1, 2.5
783, -2.07846096908, 1.2, 2.5
784, -2.25166604984, 1.3, 2.5
785, -2.4248711306, 1.4, 2.5
786, -2.59807621135, 1.5, 2.5
787, -1.93185165258, 0.517638090205, 2.5
788, -2.12503681784, 0.569401899226, 2.5
789, -2.31822198309, 0.621165708246, 2.5
790, -2.51140714835, 0.672929517267, 2.5
791, -2.70459231361, 0.724693326287, 2.5
792, -2.89777747887, 0.776457135308, 2.5
793, -2, 2.44929359829e-16, 2.5
794, -2.2, 2.69422295812e-16, 2.5
795, -2.4, 2.93915231795e-16, 2.5
796, -2.6, 3.18408167778e-16, 2.5
797, -2.8, 3.42901103761e-16, 2.5
798, -3, 3.67394039744e-16, 2.5
799, -1.93185165258, -0.517638090205, 2.5
800, -2.12503681784, -0.569401899226, 2.5
801, -2.31822198309, -0.621165708246, 2.5
802, -2.51140714835, -0.672929517267, 2.5
803, -2.70459231361, -0.724693326287, 2.5
804, -2.89777747887, -0.776457135308, 2.5
805, -1.73205080757, -1, 2.5
806, -1.90525588833, -1.1, 2.5
807, -2.07846096908, -1.2, 2.5
808, -2.25166604984, -1.3, 2.5
809, -2.4248711306, -1.4, 2.5
810, -2.59807621135, -1.5, 2.5
811, -1.41421356237, -1.41421356237, 2.5
812, -1.55563491861, -1.55563491861, 2.5
813, -1.69705627485, -1.69705627485, 2.5
814, -1.83847763109, -1.83847763109, 2.5
815, -1.97989898732, -1.97989898732, 2.5
816, -2.12132034356, -2.12132034356, 2.5
817, -1, -1.73205080757, 2.5
818, -1.1, -1.90525588833, 2.5
819, -1.2, -2.07846096908, 2.5
820, -1.3, -2.25166604984, 2.5
821, -1.4, -2.4248711306, 2.5
822, -1.5, -2.59807621135, 2.5
823, -0.517638090205, -1.93185165258, 2.5
824, -0.569401899226, -2.12503681784, 2.5
825, -0.621165708246, -2.31822198309, 2.5
826, -0.672929517267, -2.51140714835, 2.5
827, -0.724693326287, -2.70459231361, 2.5
828, -0.776457135308, -2.89777747887, 2.5
829, -3.67394039744e-16, -2, 2.5
830, -4.04133443719e-16, -2.2, 2.5
831, -4.40872847693e-16, -2.4, 2.5
832, -4.77612251667e-16, -2.6, 2.5
833, -5.14351655642e-16, -2.8, 2.5
834, -5.51091059616e-16, -3, 2.5
835, 0.517638090205, -1.93185165258, 2.5
836, 0.569401899226, -2.12503681784, 2.5
837, 0.621165708246, -2.31822198309, 2.5
838, 0.672929517267, -2.51140714835, 2.5
839, 0.724693326287, -2.70459231361, 2.5
840, 0.776457135308, -2.89777747887, 2.5
841, 1, -1.73205080757, 2.5
842, 1.1, -1.90525588833, 2.5
843, 1.2, -2.07846096908, 2.5
844, 1.3, -2.25166604984, 2.5
845, 1.4, -2.4248711306, 2.5
846, 1.5, -2.59807621135, 2.5
847, 1.41421356237, -1.41421356237, 2.5
848, 1.55563491861, -1.55563491861, 2.5
849, 1.69705627485, -1.69705627485, 2.5
850, 1.83847763109, -1.83847763109, 2.5
851, 1.97989898732, -1.97989898732, 2.5
852, 2.12132034356, -2.12132034356, 2.5
853, 1.73205080757, -1, 2.5
854, 1.90525588833, -1.1, 2.5
855, 2.07846096908, -1.2, 2.5
856, 2.25166604984, -1.3, 2.5
857, 2.4248711306, -1.4, 2.5
858, 2.59807621135, -1.5, 2.5
859, 1.93185165258, -0.517638090205, 2.5
860, 2.12503681784, -0.569401899226, 2.5
861, 2.31822198309, -0.621165708246, 2.5
862, 2.51140714835, -0.672929517267, 2.5
863, 2.70459231361, -0.724693326287, 2.5
864, 2.89777747887, -0.776457135308, 2.5
865, 2, 0, 3
866, 2.2, 0, 3
867, 2.4, 0, 3
868, 2.6, 0, 3
869, 2.8, 0, 3
870, 3, 0, 3
871, 1.93185165258, 0.517638090205, 3
872, 2.12503681784, 0.569401899226, 3
873, 2.31822198309, 0.621165708246, 3
874, 2.51140714835, 0.672929517267, 3
875, 2.70459231361, 0.724693326287, 3
876, 2.89777747887, 0.776457135308, 3
877, 1.73205080757, 1, 3
878, 1.90525588833, 1.1, 3
879, 2.07846096908, 1.2, 3
880, 2.25166604984, 1.3, 3
881, 2.4248711306, 1.4, 3
882, 2.59807621135, 1.5, 3
883, 1.41421356237, 1.41421356237, 3
884, 1.55563491861, 1.55563491861, 3
885, 1.69705627485, 1.69705627485, 3
886, 1.83847763109, 1.83847763109, 3
887, 1.97989898732, 1.97989898732, 3
888, 2.12132034356, 2.12132034356, 3
889, 1, 1.73205080757, 3
890, 1.1, 1.90525588833, 3
891, 1.2, 2.07846096908, 3
892, 1.3, 2.25166604984, 3
893, 1.4, 2.4248711306, 3
894, 1.5, 2.59807621135, 3
895, 0.517638090205, 1.93185165258, 3
896, 0.569401899226, 2.12503681784, 3
897, 0.621165708246, 2.31822198309, 3
898, 0.672929517267, 2.51140714835, 3
899, 0.724693326287, 2.70459231361, 3
900, 0.776457135308, 2.89777747887, 3
901, 1.22464679915e-16, 2, 3
902, 1.34711147906e-16, 2.2, 3
903, 1.46957615898e-16, 2.4, 3
904, 1.59204083889e-16, 2.6, 3
905, 1.71450551881e-16, 2.8, 3
906, 1.83697019872e-16, 3, 3
907, -0.517638090205, 1.93185165258, 3
908, -0.569401899226, 2.12503681784, 3
909, -0.621165708246, 2.31822198309, 3
910, -0.672929517267, 2.51140714835, 3
911, -0.724693326287, 2.70459231361, 3
912, -0.776457135308, 2.89777747887, 3
913, -1, 1.73205080757, 3
914, -1.1, 1.90525588833, 3
915, -1.2, 2.07846096908, 3
916, -1.3, 2.25166604984, 3
917, -1.4, 2.4248711306, 3
918, -1.5, 2.59807621135, 3
919, -1.41421356237, 1.41421356237, 3
920, -1.55563491861, 1.55563491861, 3
921, -1.69705627485, 1.69705627485, 3
922, -1.83847763109, 1.83847763109, 3
923, -1.97989898732, 1.97989898732, 3
924, -2.12132034356, 2.12132034356, 3
925, -1.73205080757, 1, 3
926, -1.90525588833, 1.1, 3
927, -2.07846096908, 1.2, 3
928, -2.25166604984, 1.3, 3
929, -2.4248711306, 1.4, 3
930, -2.59807621135, 1.5, 3
931, -1.93185165258, 0.517638090205, 3
932, -2.12503681784, 0.569401899226, 3
933, -2.31822198309, 0.621165708246, 3
934, -2.51140714835, 0.672929517267, 3
935, -2.70459231361, 0.724693326287, 3
936, -2.89777747887, 0.776457135308, 3
937, -2, 2.44929359829e-16, 3
938, -2.2, 2.69422295812e-16, 3
939, -2.4, 2.93915231795e-16, 3
940, -2.6, 3.18408167778e-16, 3
941, -2.8, 3.42901103761e-16, 3
942, -3, 3.67394039744e-16, 3
943, -1.93185165258, -0.517638090205, 3
944, -2.12503681784, -0.569401899226, 3
945, -2.31822198309, -0.621165708246, 3
946, -2.51140714835, -0.672929517267, 3
947, -2.70459231361, -0.724693326287, 3
948, -2.89777747887, -0.776457135308, 3
949, -1.73205080757, -1, 3
950, -1.90525588833, -1.1, 3
951, -2.07846096908, -1.2, 3
952, -2.25166604984, -1.3, 3
953, -2.4248711306, -1.4, 3
954, -2.59807621135, -1.5, 3
955, -1.41421356237, -1.41421356237, 3
956, -1.55563491861, -1.55563491861, 3
957, -1.69705627485, -1.69705627485, 3
958, -1.83847763109, -1.83847763109, 3
959, -1.97989898732, -1.97989898732, 3
960, -2.12132034356, -2.12132034356, 3
961, -1, -1.73205080757, 3
962, -1.1, -1.90525588833, 3
963, -1.2, -2.07846096908, 3
964, -1.3, -2.25166604984, 3
965, -1.4, -2.4248711306, 3
966, -1.5, -2.59807621135, 3
967, -0.517638090205, -1.93185165258, 3
968, -0.569401899226, -2.12503681784, 3
969, -0.621165708246, -2.31822198309, 3
970, -0.672929517267, -2.51140714835, 3
971, -0.724693326287, -2.70459231361, 3
972, -0.776457135308, -2.89777747887, 3
973, -3.67394039744e-16, -2, 3
974, -4.04133443719e-16, -2.2, 3
975, -4.40872847693e-16, -2.4, 3
976, -4.77612251667e-16, -2.6, 3
977, -5.14351655642e-16, -2.8, 3
978, -5.51091059616e-16, -3, 3
979, 0.517638090205, -1.93185165258, 3
980, 0.569401899226, -2.12503681784, 3
981, 0.621165708246, -2.31822198309, 3
982, 0.672929517267, -2.51140714835, 3
983, 0.724693326287, -2.70459231361, 3
984, 0.776457135308, -2.89777747887, 3
985, 1, -1.73205080757, 3
986, 1.1, -1.90525588833, 3
987, 1.2, -2.07846096908, 3
988, 1.3, -2.25166604984, 3
989, 1.4, -2.4248711306, 3
990, 1.5, -2.59807621135, 3
991, 1.41421356237, -1.41421356237, 3
992, 1.55563491861, -1.55563491861, 3
993, 1.69705627485, -1.69705627485, 3
994, 1.83847763109, -1.83847763109, 3
995, 1.97989898732, -1.97989898732, 3
996, 2.12132034356, -2.12132034356, 3
997, 1.73205080757, -1, 3
998, 1.90525588833, -1.1, 3
999, 2.07846096908, -1.2, 3
1000, 2.25166604984, -1.3, 3
1001, 2.4248711306, -1.4, 3
1002, 2.59807621135, -1.5, 3
1003, 1.93185165258, -0.517638090205, 3
1004, 2.12503681784, -0.569401899226, 3
1005, 2.31822198309, -0.621165708246, 3
1006, 2.51140714835, -0.672929517267, 3
1007, 2.70459231361, -0.724693326287, 3
1008, 2.89777747887, -0.776457135308, 3
1009, 2, 0, 3.5
1010, 2.2, 0, 3.5
1011, 2.4, 0, 3.5
1012, 2.6, 0, 3.5
1013, 2.8, 0, 3.5
1014, 3, 0, 3.5
1015, 1.93185165258, 0.517638090205, 3.5
1016, 2.12503681784, 0.569401899226, 3.5
1017, 2.31822198309, 0.621165708246, 3.5
1018, 2.51140714835, 0.672929517267, 3.5
1019, 2.70459231361, 0.724693326287, 3.5
1020, 2.89777747887, 0.776457135308, 3.5
1021, 1.73205080757, 1, 3.5
1022, 1.90525588833, 1.1, 3.5
1023, 2.07846096908, 1.2, 3.5
1024, 2.25166604984, 1.3, 3.5
1025, 2.4248711306, 1.4, 3.5
1026, 2.59807621135, 1.5, 3.5
1027, 1.41421356237, 1.41421356237, 3.5
1028, 1.55563491861, 1.55563491861, 3.5
1029, 1.69705627485, 1.69705627485, 3.5
1030, 1.83847763109, 1.83847763109, 3.5
1031, 1.97989898732, 1.97989898732, 3.5
1032, 2.12132034356, 2.12132034356, 3.5
1033, 1, 1.73205080757, 3.5
1034, 1.1, 1.90525588833, 3.5
1035, 1.2, 2.07846096908, 3.5
1036, 1.3, 2.25166604984, 3.5
1037, 1.4, 2.4248711306, 3.5
1038, 1.5, 2.59807621135, 3.5
1039, 0.517638090205, 1.93185165258, 3.5
1040, 0.569401899226, 2.12503681784, 3.5
1041, 0.621165708246, 2.31822198309, 3.5
1042, 0.672929517267, 2.51140714835, 3.5
1043, 0.724693326287, 2.70459231361, 3.5
1044, 0.776457135308, 2.89777747887, 3.5
1045, 1.22464679915e-16, 2, 3.5
1046, 1.34711147906e-16, 2.2, 3.5
1047, 1.46957615898e-16, 2.4, 3.5
1048, 1.59204083889e-16, 2.6, 3.5
1049, 1.71450551881e-16, 2.8, 3.5
1050, 1.83697019872e-16, 3, 3.5
1051, -0.517638090205, 1.93185165258, 3.5
1052, -0.569401899226, 2.12503681784, 3.5
1053, -0.621165708246, 2.31822198309, 3.5
1054, -0.672929517267, 2.51140714835, 3.5
1055, -0.724693326287, 2.70459231361, 3.5
1056, -0.776457135308, 2.89777747887, 3.5
1057, -1, 1.73205080757, 3.5
1058, -1.1, 1.90525588833, 3.5
1059, -1.2, 2.07846096908, 3.5
1060, -1.3, 2.25166604984, 3.5
1061, -1.4, 2.4248711306, 3.5
1062, -1.5, 2.59807621135, 3.5
1063, -1.41421356237, 1.41421356237, 3.5
1064, -1.55563491861, 1.55563491861, 3.5
1065, -1.69705627485, 1.69705627485, 3.5
1066, -1.83847763109, 1.83847763109, 3.5
1067, -1.97989898732, 1.97989898732, 3.5
1068, -2.12132034356, 2.12132034356, 3.5
1069, -1.73205080757, 1, 3.5
1070, -1.90525588833, 1.1, 3.5
1071, -2.07846096908, 1.2, 3.5
1072, -2.25166604984, 1.3, 3.5
1073, -2.4248711306, 1.4, 3.5
1074, -2.59807621135, 1.5, 3.5
1075, -1.93185165258, 0.517638090205, 3.5
1076, -2.12503681784, 0.569401899226, 3.5
1077, -2.31822198309, 0.621165708246, 3.5
1078, -2.51140714835, 0.672929517267, 3.5
1079, -2.70459231361, 0.724693326287, 3.5
1080, -2.89777747887, 0.776457135308, 3.5
1081, -2, 2.44929359829e-16, 3.5
1082, -2.2, 2.69422295812e-16, 3.5
1083, -2.4, 2.93915231795e-16, 3.5
1084, -2.6, 3.18408167778e-16, 3.5
1085, -2.8, 3.42901103761e-16, 3.5
1086, -3, 3.67394039744e-16, 3.5
1087, -1.93185165258, -0.517638090205, 3.5
1088, -2.12503681784, -0.569401899226, 3.5
1089, -2.31822198309, -0.621165708246, 3.5
1090, -2.51140714835, -0.672929517267, 3.5
1091, -2.70459231361, -0.724693326287, 3.5
1092, -2.89777747887, -0.776457135308, 3.5
1093, -1.73205080757, -1, 3.5
1094, -1.90525588833, -1.1, 3.5
1095, -2.07846096908, -1.2, 3.5
1096, -2.25166604984, -1.3, 3.5
1097, -2.4248711306, -1.4, 3.5
1098, -2.59807621135, -1.5, 3.5
1099, -1.41421356237, -1.41421356237, 3.5
1100, -1.55563491861, -1.55563491861, 3.5
1101, -1.69705627485, -1.69705627485, 3.5
1102, -1.83847763109, -1.83847763109, 3.5
1103, -1.97989898732, -1.97989898732, 3.5
1104, -2.12132034356, -2.12132034356, 3.5
1105, -1, -1.73205080757, 3.5
1106, -1.1, -1.90525588833, 3.5
1107, -1.2, -2.07846096908, 3.5
1108, -1.3, -2.25166604984, 3.5
1109, -1.4, -2.4248711306, 3.5
1110, -1.5, -2.59807621135, 3.5
1111, -0.517638090205, -1.93185165258, 3.5
1112, -0.569401899226, -2.12503681784, 3.5
1113, -0.621165708246, -2.31822198309, 3.5
1114, -0.672929517267, -2.51140714835, 3.5
1115, -0.724693326287, -2.70459231361, 3.5
1116, -0.776457135308, -2.89777747887, 3.5
1117, -3.67394039744e-16, -2, 3.5
1118, -4.04133443719e-16, -2.2, 3.5
1119, -4.40872847693e-16, -2.4, 3.5
1120, -4.77612251667e-16, -2.6, 3.5
1121, -5.14351655642e-16, -2.8, 3.5
1122, -5.51091059616e-16, -3, 3.5
1123, 0.517638090205, -1.93185165258, 3.5
1124, 0.569401899226, -2.12503681784, 3.5
1125, 0.621165708246, -2.31822198309, 3.5
1126, 0.672929517267, -2.51140714835, 3.5
1127, 0.724693326287, -2.70459231361, 3.5
1128, 0.776457135308, -2.89777747887, 3.5
1129, 1, -1.73205080757, 3.5
1130, 1.1, -1.90525588833, 3.5
1131, 1.2, -2.07846096908, 3.5
1132, 1.3, -2.25166604984, 3.5
1133, 1.4, -2.4248711306, 3.5
1134, 1.5, -2.59807621135, 3.5
1135, 1.41421356237, -1.41421356237, 3.5
1136, 1.55563491861, -1.55563491861, 3.5
1137, 1.69705627485, -1.69705627485, 3.5
1138, 1.83847763109, -1.83847763109, 3.5
1139, 1.97989898732, -1.97989898732, 3.5
1140, 2.12132034356, -2.12132034356, 3.5
1141, 1.73205080757, -1, 3.5
1142, 1.90525588833, -1.1, 3.5
1143, 2.07846096908, -1.2, 3.5
1144, 2.25166604984, -1.3, 3.5
1145, 2.4248711306, -1.4, 3.5
1146, 2.59807621135, -1.5, 3.5
1147, 1.93185165258, -0.517638090205, 3.5
1148, 2.12503681784, -0.569401899226, 3.5
1149, 2.31822198309, -0.621165708246, 3.5
1150, 2.51140714835, -0.672929517267, 3.5
1151, 2.70459231361, -0.724693326287, 3.5
1152, 2.89777747887, -0.776457135308, 3.5
1153, 2, 0, 4
1154, 2.2, 0, 4
1155, 2.4, 0, 4
1156, 2.6, 0, 4
1157, 2.8, 0, 4
1158, 3, 0, 4
1159, 1.93185165258, 0.517638090205, 4
1160, 2.12503681784, 0.569401899226, 4
1161, 2.31822198309, 0.621165708246, 4
1162, 2.51140714835, 0.672929517267, 4
1163, 2.70459231361, 0.724693326287, 4
1164, 2.89777747887, 0.776457135308, 4
1165, 1.73205080757, 1, 4
1166, 1.90525588833, 1.1, 4
1167, 2.07846096908, 1.2, 4
1168, 2.25166604984, 1.3, 4
1169, 2.4248711306, 1.4, 4
1170, 2.59807621135, 1.5, 4
1171, 1.41421356237, 1.41421356237, 4
1172, 1.55563491861, 1.55563491861, 4
1173, 1.69705627485, 1.69705627485, 4
1174, 1.83847763109, 1.83847763109, 4
1175, 1.97989898732, 1.97989898732, 4
1176, 2.12132034356, 2.12132034356, 4
1177, 1, 1.73205080757, 4
1178, 1.1, 1.90525588833, 4
1179, 1.2, 2.07846096908, 4
1180, 1.3, 2.25166604984, 4
1181, 1.4, 2.4248711306, 4
1182, 1.5, 2.59807621135, 4
1183, 0.517638090205, 1.93185165258, 4
1184, 0.569401899226, 2.12503681784, 4
1185, 0.621165708246, 2.31822198309, 4
1186, 0.672929517267, 2.51140714835, 4
1187, 0.724693326287, 2.70459231361, 4
1188, 0.776457135308, 2.89777747887, 4
1189, 1.22464679915e-16, 2, 4
1190, 1.34711147906e-16, 2.2, 4
1191, 1.46957615898e-16, 2.4, 4
1192, 1.59204083889e-16, 2.6, 4
1193, 1.71450551881e-16, 2.8, 4
1194, 1.83697019872e-16, 3, 4
1195, -0.517638090205, 1.93185165258, 4
1196, -0.569401899226, 2.12503681784, 4
1197, -0.621165708246, 2.31822198309, 4
1198, -0.672929517267, 2.51140714835, 4
1199, -0.724693326287, 2.70459231361, 4
1200, -0.776457135308, 2.89777747887, 4
1201, -1, 1.73205080757, 4
1202, -1.1, 1.90525588833, 4
1203, -1.2, 2.07846096908, 4
1204, -1.3, 2.25166604984, 4
1205, -1.4, 2.4248711306, 4
1206, -1.5, 2.59807621135, 4
1207, -1.41421356237, 1.41421356237, 4
1208, -1.55563491861, 1.55563491861, 4
1209, -1.69705627485, 1.69705627485, 4
1210, -1.83847763109, 1.83847763109, 4
1211, -1.97989898732, 1.97989898732, 4
1212, -2.12132034356, 2.12132034356, 4
1213, -1.73205080757, 1, 4
1214, -1.90525588833, 1.1, 4
1215, -2.07846096908, 1.2, 4
1216, -2.25166604984, 1.3, 4
1217, -2.4248711306, 1.4, 4
1218, -2.59807621135, 1.5, 4
1219, -1.93185165258, 0.517638090205, 4
1220, -2.12503681784, 0.569401899226, 4
1221, -2.31822198309, 0.621165708246, 4
1222, -2.51140714835, 0.672929517267, 4
1223, -2.70459231361, 0.724693326287, 4
1224, -2.89777747887, 0.776457135308, 4
1225, -2, 2.44929359829e-16, 4
1226, -2.2, 2.69422295812e-16, 4
1227, -2.4, 2.93915231795e-16, 4
1228, -2.6, 3.18408167778e-16, 4
1229, -2.8, 3.42901103761e-16, 4
1230, -3, 3.67394039744e-16, 4
1231, -1.93185165258, -0.517638090205, 4
1232, -2.12503681784, -0.569401899226, 4
1233, -2.31822198309, -0.621165708246, 4
1234, -2.51140714835, -0.672929517267, 4
1235, -2.70459231361, -0.724693326287, 4
1236, -2.89777747887, -0.776457135308, 4
1237, -1.73205080757, -1, 4
1238, -1.90525588833, -1.1, 4
1239, -2.07846096908, -1.2, 4
1240, -2.25166604984, -1.3, 4
1241, -2.4248711306, -1.4, 4
1242, -2.59807621135, -1.5, 4
1243, -1.41421356237, -1.41421356237, 4
1244, -1.55563491861, -1.55563491861, 4
1245, -1.69705627485, -1.69705627485, 4
1246, -1.83847763109, -1.83847763109, 4
1247, -1.97989898732, -1.97989898732, 4
1248, -2.12132034356, -2.12132034356, 4
1249, -1, -1.73205080757, 4
1250, -1.1, -1.90525588833, 4
1251, -1.2, -2.07846096908, 4
1252, -1.3, -2.25166604984, 4
1253, -1.4, -2.4248711306, 4
1254, -1.5, -2.59807621135, 4
1255, -0.517638090205, -1.93185165258, 4
1256, -0.569401899226, -2.12503681784, 4
1257, -0.621165708246, -2.31822198309, 4
1258, -0.672929517267, -2.51140714835, 4
1259, -0.724693326287, -2.70459231361, 4
1260, -0.776457135308, -2.89777747887, 4
1261, -3.67394039744e-16, -2, 4
1262, -4.04133443719e-16, -2.2, 4
1263, -4.40872847693e-16, -2.4, 4
1264, -4.77612251667e-16, -2.6, 4
1265, -5.14351655642e-16, -2.8, 4
1266, -5.51091059616e-16, -3, 4
1267, 0.517638090205, -1.93185165258, 4
1268, 0.569401899226, -2.12503681784, 4
1269, 0.621165708246, -2.31822198309, 4
1270, 0.672929517267, -2.51140714835, 4
1271, 0.724693326287, -2.70459231361, 4
1272, 0.776457135308, -2.89777747887, 4
1273, 1, -1.73205080757, 4
1274, 1.1, -1.90525588833, 4
1275, 1.2, -2.07846096908, 4
1276, 1.3, -2.25166604984, 4
1277, 1.4, -2.4248711306, 4
1278, 1.5, -2.59807621135, 4
1279, 1.41421356237, -1.41421356237, 4
1280, 1.55563491861, -1.55563491861, 4
1281, 1.69705627485, -1.69705627485, 4
1282, 1.83847763109, -1.83847763109, 4
1283, 1.97989898732, -1.97989898732, 4
1284, 2.12132034356, -2.12132034356, 4
1285, 1.73205080757, -1, 4
1286, 1.90525588833, -1.1, 4
1287, 2.07846096908, -1.2, 4
1288, 2.25166604984, -1.3, 4
1289, 2.4248711306, -1.4, 4
1290, 2.59807621135, -1.5, 4
1291, 1.93185165258, -0.517638090205, 4
1292, 2.12503681784, -0.569401899226, 4
1293, 2.31822198309, -0.621165708246, 4
1294, 2.51140714835, -0.672929517267, 4
1295, 2.70459231361, -0.724693326287, 4
1296, 2.89777747887, -0.776457135308, 4
1297, 2, 0, 4.5
1298, 2.2, 0, 4.5
1299, 2.4, 0, 4.5
1300, 2.6, 0, 4.5
1301, 2.8, 0, 4.5
1302, 3, 0, 4.5
1303, 1.93185165258, 0.517638090205, 4.5
1304, 2.12503681784, 0.569401899226, 4.5
1305, 2.31822198309, 0.621165708246, 4.5
1306, 2.51140714835, 0.672929517267, 4.5
1307, 2.70459231361, 0.724693326287, 4.5
1308, 2.89777747887, 0.776457135308, 4.5
1309, 1.73205080757, 1, 4.5
1310, 1.90525588833, 1.1, 4.5
1311, 2.07846096908, 1.2, 4.5
1312, 2.25166604984, 1.3, 4.5
1313, 2.4248711306, 1.4, 4.5
1314, 2.59807621135, 1.5, 4.5
1315, 1.41421356237, 1.41421356237, 4.5
1316, 1.55563491861, 1.55563491861, 4.5
1317, 1.69705627485, 1.69705627485, 4.5
1318, 1.83847763109, 1.83847763109, 4.5
1319, 1.97989898732, 1.97989898732, 4.5
1320, 2.12132034356, 2.12132034356, 4.5
1321, 1, 1.73205080757, 4.5
1322, 1.1, 1.90525588833, 4.5
1323, 1.2, 2.07846096908, 4.5
1324, 1.3, 2.25166604984, 4.5
1325, 1.4, 2.4248711306, 4.5
1326, 1.5, 2.59807621135, 4.5
1327, 0.517638090205, 1.93185165258, 4.5
1328, 0.569401899226, 2.12503681784, 4.5
1329, 0.621165708246, 2.31822198309, 4.5
1330, 0.672929517267, 2.51140714835, 4.5
1331, 0.724693326287, 2.70459231361, 4.5
1332, 0.776457135308, 2.89777747887, 4.5
1333, 1.22464679915e-16, 2, 4.5
1334, 1.34711147906e-16, 2.2, 4.5
1335, 1.46957615898e-16, 2.4, 4.5
1336, 1.59204083889e-16, 2.6, 4.5
1337, 1.71450551881e-16, 2.8, 4.5
1338, 1.83697019872e-16, 3, 4.5
1339, -0.517638090205, 1.93185165258, 4.5
1340, -0.569401899226, 2.12503681784, 4.5
1341, -0.621165708246, 2.31822198309, 4.5
1342, -0.672929517267, 2.51140714835, 4.5
1343, -0.724693326287, 2.70459231361, 4.5
1344, -0.776457135308, 2.89777747887, 4.5
1345, -1, 1.73205080757, 4.5
1346, -1.1, 1.90525588833, 4.5
1347, -1.2, 2.07846096908, 4.5
1348, -1.3, 2.25166604984, 4.5
1349, -1.4, 2.4248711306, 4.5
1350, -1.5, 2.59807621135, 4.5
1351, -1.41421356237, 1.41421356237, 4.5
1352, -1.55563491861, 1.55563491861, 4.5
1353, -1.69705627485, 1.69705627485, 4.5
1354, -1.83847763109, 1.83847763109, 4.5
1355, -1.97989898732, 1.97989898732, 4.5
1356, -2.12132034356, 2.12132034356, 4.5
1357, -1.73205080757, 1, 4.5
1358, -1.90525588833, 1.1, 4.5
1359, -2.07846096908, 1.2, 4.5
1360, -2.25166604984, 1.3, 4.5
1361, -2.4248711306, 1.4, 4.5
1362, -2.59807621135, 1.5, 4.5
1363, -1.93185165258, 0.517638090205, 4.5
1364, -2.12503681784, 0.569401899226, 4.5
1365, -2.31822198309, 0.621165708246, 4.5
1366, -2.51140714835, 0.672929517267, 4.5
1367, -2.70459231361, 0.724693326287, 4.5
1368, -2.89777747887, 0.776457135308, 4.5
1369, -2, 2.44929359829e-16, 4.5
1370, -2.2, 2.69422295812e-16, 4.5
1371, -2.4, 2.93915231795e-16, 4.5
1372, -2.6, 3.18408167778e-16, 4.5
1373, -2.8, 3.42901103761e-16, 4.5
1374, -3, 3.67394039744e-16, 4.5
1375, -1.93185165258, -0.517638090205, 4.5
1376, -2.12503681784, -0.569401899226, 4.5
1377, -2.31822198309, -0.621165708246, 4.5
1378, -2.51140714835, -0.672929517267, 4.5
1379, -2.70459231361, -0.724693326287, 4.5
1380, -2.89777747887, -0.776457135308, 4.5
1381, -1.73205080757, -1, 4.5
1382, -1.90525588833, -1.1, 4.5
1383, -2.07846096908, -1.2, 4.5
1384, -2.25166604984, -1.3, 4.5
1385, -2.4248711306, -1.4, 4.5
1386, -2.59807621135, -1.5, 4.5
1387, -1.41421356237, -1.41421356237, 4.5
1388, -1.55563491861, -1.55563491861, 4.5
1389, -1.69705627485, -1.69705627485, 4.5
1390, -1.83847763109, -1.83847763109, 4.5
1391, -1.97989898732, -1.97989898732, 4.5
1392, -2.12132034356, -2.12132034356, 4.5
1393, -1, -1.73205080757, 4.5
1394, -1.1, -1.90525588833, 4.5
1395, -1.2, -2.07846096908, 4.5
1396, -1.3, -2.25166604984, 4.5
1397, -1.4, -2.4248711306, 4.5
1398, -1.5, -2.59807621135, 4.5
1399, -0.517638090205, -1.93185165258, 4.5
1400, -0.569401899226, -2.12503681784, 4.5
1401, -0.621165708246, -2.31822198309, 4.5
1402, -0.672929517267, -2.51140714835, 4.5
1403, -0.724693326287, -2.70459231361, 4.5
1404, -0.776457135308, -2.89777747887, 4.5
1405, -3.67394039744e-16, -2, 4.5
1406, -4.04133443719e-16, -2.2, 4.5
1407, -4.40872847693e-16, -2.4, 4.5
1408, -4.77612251667e-16, -2.6, 4.5
1409, -5.14351655642e-16, -2.8, 4.5
1410, -5.51091059616e-16, -3, 4.5
1411, 0.517638090205, -1.93185165258, 4.5
1412, 0.569401899226, -2.12503681784, 4.5
1413, 0.621165708246, -2.31822198309, 4.5
1414, 0.672929517267, -2.51140714835, 4.5
1415, 0.724693326287, -2.70459231361, 4.5
1416, 0.776457135308, -2.89777747887, 4.5
1417, 1, -1.73205080757, 4.5
1418, 1.1, -1.90525588833, 4.5
1419, 1.2, -2.07846096908, 4.5
1420, 1.3, -2.25166604984, 4.5
1421, 1.4, -2.4248711306, 4.5
1422, 1.5, -2.59807621135, 4.5
1423, 1.41421356237, -1.41421356237, 4.5
1424, 1.55563491861, -1.55563491861, 4.5
1425, 1.69705627485, -1.69705627485, 4.5
1426, 1.83847763109, -1.83847763109, 4.5
1427, 1.97989898732, -1.97989898732, 4.5
1428, 2.12132034356, -2.12132034356, 4.5
1429, 1.73205080757, -1, 4.5
1430, 1.90525588833, -1.1, 4.5
1431, 2.07846096908, -1.2, 4.5
1432, 2.25166604984, -1.3, 4.5
1433, 2.4248711306, -1.4, 4.5
1434, 2.59807621135, -1.5, 4.5
1435, 1.93185165258, -0.517638090205, 4.5
1436, 2.12503681784, -0.569401899226, 4.5
1437, 2.31822198309, -0.621165708246, 4.5
1438, 2.51140714835, -0.672929517267, 4.5
1439, 2.70459231361, -0.724693326287, 4.5
1440, 2.89777747887, -0.776457135308, 4.5
1441, 2, 0, 5
1442, 2.2, 0, 5
1443, 2.4, 0, 5
1444, 2.6, 0, 5
1445, 2.8, 0, 5
1446, 3, 0, 5
1447, 1.93185165258, 0.517638090205, 5
1448, 2.12503681784, 0.569401899226, 5
1449, 2.31822198309, 0.621165708246, 5
1450, 2.51140714835, 0.672929517267, 5
1451, 2.70459231361, 0.724693326287, 5
1452, 2.89777747887, 0.776457135308, 5
1453, 1.73205080757, 1, 5
1454, 1.90525588833, 1.1, 5
1455, 2.07846096908, 1.2, 5
1456, 2.25166604984, 1.3, 5
1457, 2.4248711306, 1.4, 5
1458, 2.59807621135, 1.5, 5
1459, 1.41421356237, 1.41421356237, 5
1460, 1.55563491861, 1.55563491861, 5
1461, 1.69705627485, 1.69705627485, 5
1462, 1.83847763109, 1.83847763109, 5
1463, 1.97989898732, 1.97989898732, 5
1464, 2.12132034356, 2.12132034356, 5
1465, 1, 1.73205080757, 5
1466, 1.1, 1.90525588833, 5
1467, 1.2, 2.07846096908, 5
1468, 1.3, 2.25166604984, 5
1469, 1.4, 2.4248711306, 5
1470, 1.5, 2.59807621135, 5
1471, 0.517638090205, 1.93185165258, 5
1472, 0.569401899226, 2.12503681784, 5
1473, 0.621165708246, 2.31822198309, 5
1474, 0.672929517267, 2.51140714835, 5
1475, 0.724693326287, 2.70459231361, 5
1476, 0.776457135308, 2.89777747887, 5
1477, 1.22464679915e-16, 2, 5
1478, 1.34711147906e-16, 2.2, 5
1479, 1.46957615898e-16, 2.4, 5
1480, 1.59204083889e-16, 2.6, 5
1481, 1.71450551881e-16, 2.8, 5
1482, 1.83697019872e-16, 3, 5
1483, -0.517638090205, 1.93185165258, 5
1484, -0.569401899226, 2.12503681784, 5
1485, -0.621165708246, 2.31822198309, 5
1486, -0.672929517267, 2.51140714835, 5
1487, -0.724693326287, 2.70459231361, 5
1488, -0.776457135308, 2.89777747887, 5
1489, -1, 1.73205080757, 5
1490, -1.1, 1.90525588833, 5
1491, -1.2, 2.07846096908, 5
1492, -1.3, 2.25166604984, 5
1493, -1.4, 2.4248711306, 5
1494, -1.5, 2.59807621135, 5
1495, -1.41421356237, 1.41421356237, 5
1496, -1.55563491861, 1.55563491861, 5
1497, -1.69705627485, 1.69705627485, 5
1498, -1.83847763109, 1.83847763109, 5
1499, -1.97989898732, 1.97989898732, 5
1500, -2.12132034356, 2.12132034356, 5
1501, -1.73205080757, 1, 5
1502, -1.90525588833, 1.1, 5
1503, -2.07846096908, 1.2, 5
1504, -2.25166604984, 1.3, 5
1505, -2.4248711306, 1.4, 5
1506, -2.59807621135, 1.5, 5
1507, -1.93185165258, 0.517638090205, 5
1508, -2.12503681784, 0.569401899226, 5
1509, -2.31822198309, 0.621165708246, 5
1510, -2.51140714835, 0.672929517267, 5
1511, -2.70459231361, 0.724693326287, 5
1512, -2.89777747887, 0.776457135308, 5
1513, -2, 2.44929359829e-16, 5
1514, -2.2, 2.69422295812e-16, 5
1515, -2.4, 2.93915231795e-16, 5
1516, -2.6, 3.18408167778e-16, 5
1517, -2.8, 3.42901103761e-16, 5
1518, -3, 3.67394039744e-16, 5
1519, -1.93185165258, -0.517638090205, 5
1520, -2.12503681784, -0.569401899226, 5
1521, -2.31822198309, -0.621165708246, 5
1522, -2.51140714835, -0.672929517267, 5
1523, -2.70459231361, -0.724693326287, 5
1524, -2.89777747887, -0.776457135308, 5
1525, -1.73205080757, -1, 5
1526, -1.90525588833, -1.1, 5
1527, -2.07846096908, -1.2, 5
1528, -2.25166604984, -1.3, 5
1529, -2.4248711306, -1.4, 5
1530, -2.59807621135, -1.5, 5
1531, -1.41421356237, -1.41421356237, 5
1532, -1.55563491861, -1.55563491861, 5
1533, -1.69705627485, -1.69705627485, 5
1534, -1.83847763109, -1.83847763109, 5
1535, -1.97989898732, -1.97989898732, 5
1536, -2.12132034356, -2.12132034356, 5
1537, -1, -1.73205080757, 5
1538, -1.1, -1.90525588833, 5
1539, -1.2, -2.07846096908, 5
1540, -1.3, -2.25166604984, 5
1541, -1.4, -2.4248711306, 5
1542, -1.5, -2.59807621135, 5
1543, -0.517638090205, -1.93185165258, 5
1544, -0.569401899226, -2.12503681784, 5
1545, -0.621165708246, -2.31822198309, 5
1546, -0.672929517267, -2.51140714835, 5
1547, -0.724693326287, -2.70459231361, 5
1548, -0.776457135308, -2.89777747887, 5
1549, -3.67394039744e-16, -2, 5
1550, -4.04133443719e-16, -2.2, 5
1551, -4.40872847693e-16, -2.4, 5
1552, -4.77612251667e-16, -2.6, 5
1553, -5.14351655642e-16, -2.8, 5
1554, -5.51091059616e-16, -3, 5
1555, 0.517638090205, -1.93185165258, 5
1556, 0.569401899226, -2.12503681784, 5
1557, 0.621165708246, -2.31822198309, 5
1558, 0.672929517267, -2.51140714835, 5
1559, 0.724693326287, -2.70459231361, 5
1560, 0.776457135308, -2.89777747887, 5
1561, 1, -1.73205080757, 5
1562, 1.1, -1.90525588833, 5
1563, 1.2, -2.07846096908, 5
1564, 1.3, -2.25166604984, 5
1565, 1.4, -2.4248711306, 5
1566, 1.5, -2.59807621135, 5
1567, 1.41421356237, -1.41421356237, 5
1568, 1.55563491861, -1.55563491861, 5
1569, 1.69705627485, -1.69705627485, 5
1570, 1.83847763109, -1.83847763109, 5
1571, 1.97989898732, -1.97989898732, 5
1572, 2.12132034356, -2.12132034356, 5
1573, 1.73205080757, -1, 5
1574, 1.90525588833, -1.1, 5
1575, 2.07846096908, -1.2, 5
1576, 2.25166604984, -1.3, 5
1577, 2.4248711306, -1.4, 5
1578, 2.59807621135, -1.5, 5
1579, 1.93185165258, -0.517638090205, 5
1580, 2.12503681784, -0.569401899226, 5
1581, 2.31822198309, -0.621165708246, 5
1582, 2.51140714835, -0.672929517267, 5
1583, 2.70459231361, -0.724693326287, 5
1584, 2.89777747887, -0.776457135308, 5
*Element, type=C3D8R, elset=HOST
1, 1, 2, 8, 7, 145, 146, 152, 151
2, 2, 3, 9, 8, 146, 147, 153, 152
3, 3, 4, 10, 9, 147, 148, 154, 153
4, 4, 5, 11, 10, 148, 149, 155, 154
5, 5, 6, 12, 11, 149, 150, 156, 155
6, 7, 8, 14, 13, 151, 152, 158, 157
7, 8, 9, 15, 14, 152, 153, 159, 158
8, 9, 10, 16, 15, 153, 154, 160, 159
9, 10, 11, 17, 16, 154, 155, 161, 160
10, 11, 12, 18, 17, 155, 156, 162, 161
11, 13, 14, 20, 19, 157, 158, 164, 163
12, 14, 15, 21, 20, 158, 159, 165, 164
13, 15, 16, 22, 21, 159, 160, 166, 165
14, 16, 17, 23, 22, 160, 161, 167, 166
15, 17, 18, 24, 23, 161, 162, 168, 167
16, 19, 20, 26, 25, 163, 164, 170, 169
17, 20, 21, 27, 26, 164, 165, 171, 170
18, 21, 22, 28, 27, 165, 166, 172, 171
19, 22, 23, 29, 28, 166, 167, 173, 172
20, 23, 24, 30, 29, 167, 168, 174, 173
21, 25, 26, 32, 31, 169, 170, 176, 175
22, 26, 27, 33, 32, 170, 171, 177, 176
23, 27, 28, 34, 33, 171, 172, 178, 177
24, 28, 29, 35, 34, 172, 173, 179, 178
25, 29, 30, 36, 35, 173, 174, 180, 179
26, 31, 32, 38, 37, 175, 176, 182, 181
27, 32, 33, 39, 38, 176, 177, 183, 182
28, 33, 34, 40, 39, 177, 178, 184, 183
29, 34, 35, 41, 40, 178, 179, 185, 184
30, 35, 36, 42, 41, 179, 180, 186, 185
31, 37, 38, 44, 43, 181, 182, 188, 187
32, 38, 39, 45, 44, 182, 183, 189, 188
33, 39, 40, 46, 45, 183, 184, 190, 189
34, 40, 41, 47, 46, 184, 185, 191, 190
35, 41, 42, 48, 47, 185, 186, 192, 191
36, 43, 44, 50, 49, 187, 188, 194, 193
37, 44, 45, 51, 50, 188, 189, 195, 194
38, 45, 46, 52, 51, 189, 190, 196, 195
39, 46, 47, 53, 52, 190, 191, 197, 196
40, 47, 48, 54, 53, 191, 192, 198, 197
41, 49, 50, 56, 55, 193, 194, 200, 199
42, 50, 51, 57, 56, 194, 195, 201, 200
43, 51, 52, 58, 57, 195, 196, 202, 201
44, 52, 53, 59, 58, 196, 197, 203, 202
45, 53, 54, 60, 59, 197, 198, 204, 203
46, 55, 56, 62, 61, 199, 200, 206, 205
47, 56, 57, 63, 62, 200, 201, 207, 206
48, 57, 58, 64, 63, 201, 202, 208, 207
49, 58, 59, 65, 64, 202, 203, 209, 208
50, 59, 60, 66, 65, 203, 204, 210, 209
51, 61, 62, 68, 67, 205, 206, 212, 211
52, 62, 63, 69, 68, 206, 207, 213, 212
53, 63, 64, 70, 69, 207, 208, 214, 213
54, 64, 65, 71, 70, 208, 209, 215, 214
55, 65, 66, 72, 71, 209, 210, 216, 215
56, 67, 68, 74, 73, 211, 212, 218, 217
57, 68, 69, 75, 74, 212, 213, 219, 218
58, 69, 70, 76, 75, 213, 214, 220, 219
59, 70, 71, 77, 76, 214, 215, 221, 220
60, 71, 72, 78, 77, 215, 216, 222, 221
61, 73, 74, 80, 79, 217, 218, 224, 223
62, 74, 75, 81, 80, 218, 219, 225, 224
63, 75, 76, 82, 81, 219, 220, 226, 225
64, 76, 77, 83, 82, 220, 221, 227, 226
65, 77, 78, 84, 83, 221, 222, 228, 227
66, 79, 80, 86, 85, 223, 224, 230, 229
67, 80, 81, 87, 86, 224, 225, 231, 230
68, 81, 82, 88, 87, 225, 226, 232, 231
69, 82, 83, 89, 88, 226, 227, 233, 232
70, 83, 84, 90, 89, 227, 228, 234, 233
71, 85, 86, 92, 91, 229, 230, 236, 235
72, 86, 87, 93, 92, 230, 231, 237, 236
73, 87, 88, 94, 93, 231, 232, 238, 237
74, 88, 89, 95, 94, 232, 233, 239, 238
75, 89, 90, 96, 95, 233, 234, 240, 239
76, 91, 92, 98, 97, 235, 236, 242, 241
77, 92, 93, 99, 98, 236, 237, 243, 242
78, 93, 94, 100, 99, 237, 238, 244, 243
79, 94, 95, 101, 100, 238, 239, 245, 244
80, 95, 96, 102, 101, 239, 240, 246, 245
81, 97, 98, 104, 103, 241, 242, 248, 247
82, 98, 99, 105, 104, 242, 243, 249, 248
83, 99, 100, 106, 105, 243, 244, 250, 249
84, 100, 101, 107, 106, 244, 245, 251, 250
85, 101, 102, 108, 107, 245, 246, 252, 251
86, 103, 104, 110, 109, 247, 248, 254, 253
87, 104, 105, 111, 110, 248, 249, 255, 254
88, 105, 106, 112, 111, 249, 250, 256, 255
89, 106, 107, 113, 112, 250, 251, 257, 256
90, 107, 108, 114, 113, 251, 252, 258, 257
91, 109, 110, 116, 115, 253, 254, 260, 259
92, 110, 111, 117, 116, 254, 255, 261, 260
93, 111, 112, 118, 117, 255, 256, 262, 261
94, 112, 113, 119, 118, 256, 257, 263, 262
95, 113, 114, 120, 119, 257, 258, 264, 263
96, 115, 116, 122, 121, 259, 260, 266, 265
97, 116, 117, 123, 122, 260, 261, 267, 266
98, 117, 118, 124, 123, 261, 262, 268, 267
99, 118, 119, 125, 124, 262, 263, 269, 268
100, 119, 120, 126, 125, 263, 264, 270, 269
101, 121, 122, 128, 127, 265, 266, 272, 271
102, 122, 123, 129, 128, 266, 267, 273, 272
103, 123, 124, 130, 129, 267, 268, 274, 273
104, 124, 125, 131, 130, 268, 269, 275, 274
105, 125, 126, 132, 131, 269, 270, 276, 275
106, 127, 128, 134, 133, 271, 272, 278, 277
107, 128, 129, 135, 134, 272, 273, 279, 278
108, 129, 130, 136, 135, 273, 274, 280, 279
109, 130, 131, 137, 136, 274, 275, 281, 280
110, 131, 132, 138, 137, 275, 276, 282, 281
111, 133, 134, 140, 139, 277, 278, 284, 283
112, 134, 135, 141, 140, 278, 279, 285, 284
113, 135, 136, 142, 141, 279, 280, 286, 285
114, 136, 137, 143, 142, 280, 281, 287, 286
115, 137, 138, 144, 143, 281, 282, 288, 287
116, 139, 140, 2, 1, 283, 284, 146, 145
117, 140, 141, 3, 2, 284, 285, 147, 146
118, 141, 142, 4, 3, 285, 286, 148, 147
119, 142, 143, 5, 4, 286, 287, 149, 148
120, 143, 144, 6, 5, 287, 288, 150, 149
121, 145, 146, 152, 151, 289, 290, 296, 295
122, 146, 147, 153, 152, 290, 291, 297, 296
123, 147, 148, 154, 153, 291, 292, 298, 297
124, 148, 149, 155, 154, 292, 293, 299, 298
125, 149, 150, 156, 155, 293, 294, 300, 299
126, 151, 152, 158, 157, 295, 296, 302, 301
127, 152, 153, 159, 158, 296, 297, 303, 302
128, 153, 154, 160, 159, 297, 298, 304, 303
129, 154, 155, 161, 160, 298, 299, 305, 304
130, 155, 156, 162, 161, 299, 300, 306, 305
131, 157, 158, 164, 163, 301, 302, 308, 307
132, 158, 159, 165, 164, 302, 303, 309, 308
133, 159, 160, 166, 165, 303, 304, 310, 309
134, 160, 161, 167, 166, 304, 305, 311, 310
135, 161, 162, 168, 167, 305, 306, 312, 311
136, 163, 164, 170, 169, 307, 308, 314, 313
137, 164, 165, 171, 170, 308, 309, 315, 314
138, 165, 166, 172, 171, 309, 310, 316, 315
139, 166, 167, 173, 172, 310, 311, 317, 316
140, 167, 168, 174, 173, 311, 312, 318, 317
141, 169, 170, 176, 175, 313, 314, 320, 319
142, 170, 171, 177, 176, 314, 315, 321, 320
143, 171, 172, 178, 177, 315, 316, 322, 321
144, 172, 173, 179, 178, 316, 317, 323, 322
145, 173, 174, 180, 179, 317, 318, 324, 323
146, 175, 176, 182, 181, 319, 320, 326, 325
147, 176, 177, 183, 182, 320, 321, 327, 326
148, 177, 178, 184, 183, 321, 322, 328, 327
149, 178, 179, 185, 184, 322, 323, 329, 328
150, 179, 180, 186, 185, 323, 324, 330, 329
151, 181, 182, 188, 187, 325, 326, 332, 331
152, 182, 183, 189, 188, 326, 327, 333, 332
153, 183, 184, 190, 189, 327, 328, 334, 333
154, 184, 185, 191, 190, 328, 329, 335, 334
155, 185, 186, 192, 191, 329, 330, 336, 335
156, 187, 188, 194, 193, 331, 332, 338, 337
157, 188, 189, 195, 194, 332, 333, 339, 338
158, 189, 190, 196, 195, 333, 334, 340, 339
159, 190, 191, 197, 196, 334, 335, 341, 340
160, 191, 192, 198, 197, 335, 336, 342, 341
161, 193, 194, 200, 199, 337, 338, 344, 343
162, 194, 195, 201, 200, 338, 339, 345, 344
163, 195, 196, 202, 201, 339, 340, 346, 345
164, 196, 197, 203, 202, 340, 341, 347, 346
165, 197, 198, 204, 203, 341, 342, 348, 347
166, 199, 200, 206, 205, 343, 344, 350, 349
167, 200, 201, 207, 206, 344, 345, 351, 350
168, 201, 202, 208, 207, 345, 346, 352, 351
169, 202, 203, 209, 208, 346, 347, 353, 352
170, 203, 204, 210, 209, 347, 348, 354, 353
171, 205, 206, 212, 211, 349, 350, 356, 355
172, 206, 207, 213, 212, 350, 351, 357, 356
173, 207, 208, 214, 213, 351, 352, 358, 357
174, 208, 209, 215, 214, 352, 353, 359, 358
175, 209, 210, 216, 215, 353, 354, 360, 359
176, 211, 212, 218, 217, 355, 356, 362, 361
177, 212, 213, 219, 218, 356, 357, 363, 362
178, 213, 214, 220, 219, 357, 358, 364, 363
179, 214, 215, 221, 220, 358, 359, 365, 364
180, 215, 216, 222, 221, 359, 360, 366, 365
181, 217, 218, 224, 223, 361, 362, 368, 367
182, 218, 219, 225, 224, 362, 363, 369, 368
183, 219, 220, 226, 225, 363, 364, 370, 369
184, 220, 221, 227, 226, 364, 365, 371, 370
185, 221, 222, 228, 227, 365, 366, 372, 371
186, 223, 224, 230, 229, 367, 368, 374, 373
187, 224, 225, 231, 230, 368, 369, 375, 374
188, 225, 226, 232, 231, 369, 370, 376, 375
189, 226, 227, 233, 232, 370, 371, 377, 376
190, 227, 228, 234, 233, 371, 372, 378, 377
191, 229, 230, 236, 235, 373, 374, 380, 379
192, 230, 231, 237, 236, 374, 375, 381, 380
193, 231, 232, 238, 237, 375, 376, 382, 381
194, 232, 233, 239, 238, 376, 377, 383, 382
195, 233, 234, 240, 239, 377, 378, 384, 383
196, 235, 236, 242, 241, 379, 380, 386, 385
197, 236, 237, 243, 242, 380, 381, 387, 386
198, 237, 238, 244, 243, 381, 382, 388, 387
199, 238, 239, 245, 244, 382, 383, 389, 388
200, 239, 240, 246, 245, 383, 384, 390, 389
201, 241, 242, 248, 247, 385, 386, 392, 391
202, 242, 243, 249, 248, 386, 387, 393, 392
203, 243, 244, 250, 249, 387, 388, 394, 393
204, 244, 245, 251, 250, 388, 389, 395, 394
205, 245, 246, 252, 251, 389, 390, 396, 395
206, 247, 248, 254, 253, 391, 392, 398, 397
207, 248, 249, 255, 254, 392, 393, 399, 398
208, 249, 250, 256, 255, 393, 394, 400, 399
209, 250, 251, 257, 256, 394, 395, 401, 400
210, 251, 252, 258, 257, 395, 396, 402, 401
211, 253, 254, 260, 259, 397, 398, 404, 403
212, 254, 255, 261, 260, 398, 399, 405, 404
213, 255, 256, 262, 261, 399, 400, 406, 405
214, 256, 257, 263, 262, 400, 401, 407, 406
215, 257, 258, 264, 263, 401, 402, 408, 407
216, 259, 260, 266, 265, 403, 404, 410, 409
217, 260, 261, 267, 266, 404, 405, 411, 410
218, 261, 262, 268, 267, 405, 406, 412, 411
219, 262, 263, 269, 268, 406, 407, 413, 412
220, 263, 264, 270, 269, 407, 408, 414, 413
221, 265, 266, 272, 271, 409, 410, 416, 415
222, 266, 267, 273, 272, 410, 411, 417, 416
223, 267, 268, 274, 273, 411, 412, 418, 417
224, 268, 269, 275, 274, 412, 413, 419, 418
225, 269, 270, 276, 275, 413, 414, 420, 419
226, 271, 272, 278, 277, 415, 416, 422, 421
227, 272, 273, 279, 278, 416, 417, 423, 422
228, 273, 274, 280, 279, 417, 418, 424, 423
229, 274, 275, 281, 280, 418, 419, 425, 424
230, 275, 276, 282, 281, 419, 420, 426, 425
231, 277, 278, 284, 283, 421, 422, 428, 427
232, 278, 279, 285, 284, 422, 423, 429, 428
233, 279, 280, 286, 285, 423, 424, 430, 429
234, 280, 281, 287, 286, 424, 425, 431, 430
235, 281, 282, 288, 287, 425, 426, 432, 431
236, 283, 284, 146, 145, 427, 428, 290, 289
237, 284, 285, 147, 146, 428, 429, 291, 290
238, 285, 286, 148, 147, 429, 430, 292, 291
239, 286, 287, 149, 148, 430, 431, 293, 292
240, 287, 288, 150, 149, 431, 432, 294, 293
241, 289, 290, 296, 295, 433, 434, 440, 439
242, 290, 291, 297, 296, 434, 435, 441, 440
243, 291, 292, 298, 297, 435, 436, 442, 441
244, 292, 293, 299, 298, 436, 437, 443, 442
245, 293, 294, 300, 299, 437, 438, 444, 443
246, 295, 296, 302, 301, 439, 440, 446, 445
247, 296, 297, 303, 302, 440, 441, 447, 446
248, 297, 298, 304, 303, 441, 442, 448, 447
249, 298, 299, 305, 304, 442, 443, 449, 448
250, 299, 300, 306, 305, 443, 444, 450, 449
251, 301, 302, 308, 307, 445, 446, 452, 451
252, 302, 303, 309, 308, 446, 447, 453, 452
253, 303, 304, 310, 309, 447, 448, 454, 453
254, 304, 305, 311, 310, 448, 449, 455, 454
255, 305, 306, 312, 311, 449, 450, 456, 455
256, 307, 308, 314, 313, 451, 452, 458, 457
257, 308, 309, 315, 314, 452, 453, 459, 458
258, 309, 310, 316, 315, 453, 454, 460, 459
259, 310, 311, 317, 316, 454, 455, 461, 460
260, 311, 312, 318, 317, 455, 456, 462, 461
261, 313, 314, 320, 319, 457, 458, 464, 463
262, 314, 315, 321, 320, 458, 459, 465, 464
263, 315, 316, 322, 321, 459, 460, 466, 465
264, 316, 317, 323, 322, 460, 461, 467, 466
265, 317, 318, 324, 323, 461, 462, 468, 467
266, 319, 320, 326, 325, 463, 464, 470, 469
267, 320, 321, 327, 326, 464, 465, 471, 470
268, 321, 322, 328, 327, 465, 466, 472, 471
269, 322, 323, 329, 328, 466, 467, 473, 472
270, 323, 324, 330, 329, 467, 468, 474, 473
271, 325, 326, 332, 331, 469, 470, 476, 475
272, 326, 327, 333, 332, 470, 471, 477, 476
273, 327, 328, 334, 333, 471, 472, 478, 477
274, 328, 329, 335, 334, 472, 473, 479, 478
275, 329, 330, 336, 335, 473, 474, 480, 479
276, 331, 332, 338, 337, 475, 476, 482, 481
277, 332, 333, 339, 338, 476, 477, 483, 482
278, 333, 334, 340, 339, 477, 478, 484, 483
279, 334, 335, 341, 340, 478, 479, 485, 484
280, 335, 336, 342, 341, 479, 480, 486, 485
281, 337, 338, 344, 343, 481, 482, 488, 487
282, 338, 339, 345, 344, 482, 483, 489, 488
283, 339, 340, 346, 345, 483, 484, 490, 489
284, 340, 341, 347, 346, 484, 485, 491, 490
285, 341, 342, 348, 347, 485, 486, 492, 491
286, 343, 344, 350, 349, 487, 488, 494, 493
287, 344, 345, 351, 350, 488, 489, 495, 494
288, 345, 346, 352, 351, 489, 490, 496, 495
289, 346, 347, 353, 352, 490, 491, 497, 496
290, 347, 348, 354, 353, 491, 492, 498, 497
291, 349, 350, 356, 355, 493, 494, 500, 499
292, 350, 351, 357, 356, 494, 495, 501, 500
293, 351, 352, 358, 357, 495, 496, 502, 501
294, 352, 353, 359, 358, 496, 497, 503, 502
295, 353, 354, 360, 359, 497, 498, 504, 503
296, 355, 356, 362, 361, 499, 500, 506, 505
297, 356, 357, 363, 362, 500, 501, 507, 506
298, 357, 358, 364, 363, 501, 502, 508, 507
299, 358, 359, 365, 364, 502, 503, 509, 508
300, 359, 360, 366, 365, 503, 504, 510, 509
301, 361, 362, 368, 367, 505, 506, 512, 511
302, 362, 363, 369, 368, 506, 507, 513, 512
303, 363, 364, 370, 369, 507, 508, 514, 513
304, 364, 365, 371, 370, 508, 509, 515, 514
305, 365, 366, 372, 371, 509, 510, 516, 515
306, 367, 368, 374, 373, 511, 512, 518, 517
307, 368, 369, 375, 374, 512, 513, 519, 518
308, 369, 370, 376, 375, 513, 514, 520, 519
309, 370, 371, 377, 376, 514, 515, 521, 520
310, 371, 372, 378, 377, 515, 516, 522, 521
311, 373, 374, 380, 379, 517, 518, 524, 523
312, 374, 375, 381, 380, 518, 519, 525, 524
313, 375, 376, 382, 381, 519, 520, 526, 525
314, 376, 377, 383, 382, 520, 521, 527, 526
315, 377, 378, 384, 383, 521, 522, 528, 527
316, 379, 380, 386, 385, 523, 524, 530, 529
317, 380, 381, 387, 386, 524, 525, 531, 530
318, 381, 382, 388, 387, 525, 526, 532, 531
319, 382, 383, 389, 388, 526, 527, 533, 532
320, 383, 384, 390, 389, 527, 528, 534, 533
321, 385, 386, 392, 391, 529, 530, 536, 535
322, 386, 387, 393, 392, 530, 531, 537, 536
323, 387, 388, 394, 393, 531, 532, 538, 537
324, 388, 389, 395, 394, 532, 533, 539, 538
325, 389, 390, 396, 395, 533, 534, 540, 539
326, 391, 392, 398, 397, 535, 536, 542, 541
327, 392, 393, 399, 398, 536, 537, 543, 542
328, 393, 394, 400, 399, 537, 538, 544, 543
329, 394, 395, 401, 400, 538, 539, 545, 544
330, 395, 396, 402, 401, 539, 540, 546, 545
331, 397, 398, 404, 403, 541, 542, 548, 547
332, 398, 399, 405, 404, 542, 543, 549, 548
333, 399, 400, 406, 405, 543, 544, 550, 549
334, 400, 401, 407, 406, 544, 545, 551, 550
335, 401, 402, 408, 407, 545, 546, 552, 551
336, 403, 404, 410, 409, 547, 548, 554, 553
337, 404, 405, 411, 410, 548, 549, 555, 554
338, 405, 406, 412, 411, 549, 550, 556, 555
339, 406, 407, 413, 412, 550, 551, 557, 556
340, 407, 408, 414, 413, 551, 552, 558, 557
341, 409, 410, 416, 415, 553, 554, 560, 559
342, 410, 411, 417, 416, 554, 555, 561, 560
343, 411, 412, 418, 417, 555, 556, 562, 561
344, 412, 413, 419, 418, 556, 557, 563, 562
345, 413, 414, 420, 419, 557, 558, 564, 563
346, 415, 416, 422, 421, 559, 560, 566, 565
347, 416, 417, 423, 422, 560, 561, 567, 566
348, 417, 418, 424, 423, 561, 562, 568, 567
349, 418, 419, 425, 424, 562, 563, 569, 568
350, 419, 420, 426, 425, 563, 564, 570, 569
351, 421, 422, 428, 427, 565, 566, 572, 571
352, 422, 423, 429, 428, 566, 567, 573, 572
353, 423, 424, 430, 429, 567, 568, 574, 573
354, 424, 425, 431, 430, 568, 569, 575, 574
355, 425, 426, 432, 431, 569, 570, 576, 575
356, 427, 428, 290, 289, 571, 572, 434, 433
357, 428, 429, 291, 290, 572, 573, 435, 434
358, 429, 430, 292, 291, 573, 574, 436, 435
359, 430, 431, 293, 292, 574, 575, 437, 436
360, 431, 432, 294, 293, 575, 576, 438, 437
361, 433, 434, 440, 439, 577, 578, 584, 583
362, 434, 435, 441, 440, 578, 579, 585, 584
363, 435, 436, 442, 441, 579, 580, 586, 585
364, 436, 437, 443, 442, 580, 581, 587, 586
365, 437, 438, 444, 443, 581, 582, 588, 587
366, 439, 440, 446, 445, 583, 584, 590, 589
367, 440, 441, 447, 446, 584, 585, 591, 590
368, 441, 442, 448, 447, 585, 586, 592, 591
369, 442, 443, 449, 448, 586, 587, 593, 592
370, 443, 444, 450, 449, 587, 588, 594, 593
371, 445, 446, 452, 451, 589, 590, 596, 595
372, 446, 447, 453, 452, 590, 591, 597, 596
373, 447, 448, 454, 453, 591, 592, 598, 597
374, 448, 449, 455, 454, 592, 593, 599, 598
375, 449, 450, 456, 455, 593, 594, 600, 599
376, 451, 452, 458, 457, 595, 596, 602, 601
377, 452, 453, 459, 458, 596, 597, 603, 602
378, 453, 454, 460, 459, 597, 598, 604, 603
379, 454, 455, 461, 460, 598, 599, 605, 604
380, 455, 456, 462, 461, 599, 600, 606, 605
381, 457, 458, 464, 463, 601, 602, 608, 607
382, 458, 459, 465, 464, 602, 603, 609, 608
383, 459, 460, 466, 465, 603, 604, 610, 609
384, 460, 461, 467, 466, 604, 605, 611, 610
385, 461, 462, 468, 467, 605, 606, 612, 611
386, 463, 464, 470, 469, 607, 608, 614, 613
387, 464, 465, 471, 470, 608, 609, 615, 614
388, 465, 466, 472, 471, 609, 610, 616, 615
389, 466, 467, 473, 472, 610, 611, 617, 616
390, 467, 468, 474, 473, 611, 612, 618, 617
391, 469, 470, 476, 475, 613, 614, 620, 619
392, 470, 471, 477, 476, 614, 615, 621, 620
393, 471, 472, 478, 477, 615, 616, 622, 621
394, 472, 473, 479, 478, 616, 617, 623, 622
395, 473, 474, 480, 479, 617, 618, 624, 623
396, 475, 476, 482, 481, 619, 620, 626, 625
397, 476, 477, 483, 482, 620, 621, 627, 626
398, 477, 478, 484, 483, 621, 622, 628, 627
399, 478, 479, 485, 484, 622, 623, 629, 628
400, 479, 480, 486, 485, 623, 624, 630, 629
401, 481, 482, 488, 487, 625, 626, 632, 631
402, 482, 483, 489, 488, 626, 627, 633, 632
403, 483, 484, 490, 489, 627, 628, 634, 633
404, 484, 485, 491, 490, 628, 629, 635, 634
405, 485, 486, 492, 491, 629, 630, 636, 635
406, 487, 488, 494, 493, 631, 632, 638, 637
407, 488, 489, 495, 494, 632, 633, 639, 638
408, 489, 490, 496, 495, 633, 634, 640, 639
409, 490, 491, 497, 496, 634, 635, 641, 640
410, 491, 492, 498, 497, 635, 636, 642, 641
411, 493, 494, 500, 499, 637, 638, 644, 643
412, 494, 495, 501, 500, 638, 639, 645, 644
413, 495, 496, 502, 501, 639, 640, 646, 645
414, 496, 497, 503, 502, 640, 641, 647, 646
415, 497, 498, 504, 503, 641, 642, 648, 647
416, 499, 500, 506, 505, 643, 644, 650, 649
417, 500, 501, 507, 506, 644, 645, 651, 650
418, 501, 502, 508, 507, 645, 646, 652, 651
419, 502, 503, 509, 508, 646, 647, 653, 652
420, 503, 504, 510, 509, 647, 648, 654, 653
421, 505, 506, 512, 511, 649, 650, 656, 655
422, 506, 507, 513, 512, 650, 651, 657, 656
423, 507, 508, 514, 513, 651, 652, 658, 657
424, 508, 509, 515, 514, 652, 653, 659, 658
425, 509, 510, 516, 515, 653, 654, 660, 659
426, 511, 512, 518, 517, 655, 656, 662, 661
427, 512, 513, 519, 518, 656, 657, 663, 662
428, 513, 514, 520, 519, 657, 658, 664, 663
429, 514, 515, 521, 520, 658, 659, 665, 664
430, 515, 516, 522, 521, 659, 660, 666, 665
431, 517, 518, 524, 523, 661, 662, 668, 667
432, 518, 519, 525, 524, 662, 663, 669, 668
433, 519, 520, 526, 525, 663, 664, 670, 669
434, 520, 521, 527, 526, 664, 665, 671, 670
435, 521, 522, 528, 527, 665, 666, 672, 671
436, 523, 524, 530, 529, 667, 668, 674, 673
437, 524, 525, 531, 530, 668, 669, 675, 674
438, 525, 526, 532, 531, 669, 670, 676, 675
439, 526, 527, 533, 532, 670, 671, 677, 676
440, 527, 528, 534, 533, 671, 672, 678, 677
441, 529, 530, 536, 535, 673, 674, 680, 679
442, 530, 531, 537, 536, 674, 675, 681, 680
443, 531, 532, 538, 537, 675, 676, 682, 681
444, 532, 533, 539, 538, 676, 677, 683, 682
445, 533, 534, 540, 539, 677, 678, 684, 683
446, 535, 536, 542, 541, 679, 680, 686, 685
447, 536, 537, 543, 542, 680, 681, 687, 686
448, 537, 538, 544, 543, 681, 682, 688, 687
449, 538, 539, 545, 544, 682, 683, 689, 688
450, 539, 540, 546, 545, 683, 684, 690, 689
451, 541, 542, 548, 547, 685, 686, 692, 691
452, 542, 543, 549, 548, 686, 687, 693, 692
453, 543, 544, 550, 549, 687, 688, 694, 693
454, 544, 545, 551, 550, 688, 689, 695, 694
455, 545, 546, 552, 551, 689, 690, 696, 695
456, 547, 548, 554, 553, 691, 692, 698, 697
457, 548, 549, 555, 554, 692, 693, 699, 698
458, 549, 550, 556, 555, 693, 694, 700, 699
459, 550, 551, 557, 556, 694, 695, 701, 700
460, 551, 552, 558, 557, 695, 696, 702, 701
461, 553, 554, 560, 559, 697, 698, 704, 703
462, 554, 555, 561, 560, 698, 699, 705, 704
463, 555, 556, 562, 561, 699, 700, 706, 705
464, 556, 557, 563, 562, 700, 701, 707, 706
465, 557, 558, 564, 563, 701, 702, 708, 707
466, 559, 560, 566, 565, 703, 704, 710, 709
467, 560, 561, 567, 566, 704, 705, 711, 710
468, 561, 562, 568, 567, 705, 706, 712, 711
469, 562, 563, 569, 568, 706, 707, 713, 712
470, 563, 564, 570, 569, 707, 708, 714, 713
471, 565, 566, 572, 571, 709, 710, 716, 715
472, 566, 567, 573, 572, 710, 711, 717, 716
473, 567, 568, 574, 573, 711, 712, 718, 717
474, 568, 569, 575, 574, 712, 713, 719, 718
475, 569, 570, 576, 575, 713, 714, 720, 719
476, 571, 572, 434, 433, 715, 716, 578, 577
477, 572, 573, 435, 434, 716, 717, 579, 578
478, 573, 574, 436, 435, 717, 718, 580, 579
479, 574, 575, 437, 436, 718, 719, 581, 580
480, 575, 576, 438, 437, 719, 720, 582, 581
481, 577, 578, 584, 583, 721, 722, 728, 727
482, 578, 579, 585, 584, 722, 723, 729, 728
483, 579, 580, 586, 585, 723, 724, 730, 729
484, 580, 581, 587, 586, 724, 725, 731, 730
485, 581, 582, 588, 587, 725, 726, 732, 731
486, 583, 584, 590, 589, 727, 728, 734, 733
487, 584, 585, 591, 590, 728, 729, 735, 734
488, 585, 586, 592, 591, 729, 730, 736, 735
489, 586, 587, 593, 592, 730, 731, 737, 736
490, 587, 588, 594, 593, 731, 732, 738, 737
491, 589, 590, 596, 595, 733, 734, 740, 739
492, 590, 591, 597, 596, 734, 735, 741, 740
493, 591, 592, 598, 597, 735, 736, 742, 741
494, 592, 593, 599, 598, 736, 737, 743, 742
495, 593, 594, 600, 599, 737, 738, 744, 743
496, 595, 596, 602, 601, 739, 740, 746, 745
497, 596, 597, 603, 602, 740, 741, 747, 746
498, 597, 598, 604, 603, 741, 742, 748, 747
499, 598, 599, 605, 604, 742, 743, 749, 748
500, 599, 600, 606, 605, 743, 744, 750, 749
501, 601, 602, 608, 607, 745, 746, 752, 751
502, 602, 603, 609, 608, 746, 747, 753, 752
503, 603, 604, 610, 609, 747, 748, 754, 753
504, 604, 605, 611, 610, 748, 749, 755, 754
505, 605, 606, 612, 611, 749, 750, 756, 755
506, 607, 608, 614, 613, 751, 752, 758, 757
507, 608, 609, 615, 614, 752, 753, 759, 758
508, 609, 610, 616, 615, 753, 754, 760, 759
509, 610, 611, 617, 616, 754, 755, 761, 760
510, 611, 612, 618, 617, 755, 756, 762, 761
511, 613, 614, 620, 619, 757, 758, 764, 763
512, 614, 615, 621, 620, 758, 759, 765, 764
513, 615, 616, 622, 621, 759, 760, 766, 765
514, 616, 617, 623, 622, 760, 761, 767, 766
515, 617, 618, 624, 623, 761, 762, 768, 767
516, 619, 620, 626, 625, 763, 764, 770, 769
517, 620, 621, 627, 626, 764, 765, 771, 770
518, 621, 622, 628, 627, 765, 766, 772, 771
519, 622, 623, 629, 628, 766, 767, 773, 772
520, 623, 624, 630, 629, 767, 768, 774, 773
521, 625, 626, 632, 631, 769, 770, 776, 775
522, 626, 627, 633, 632, 770, 771, 777, 776
523, 627, 628, 634, 633, 771, 772, 778, 777
524, 628, 629, 635, 634, 772, 773, 779, 778
525, 629, 630, 636, 635, 773, 774, 780, 779
526, 631, 632, 638, 637, 775, 776, 782, 781
527, 632, 633, 639, 638, 776, 777, 783, 782
528, 633, 634, 640, 639, 777, 778, 784, 783
529, 634, 635, 641, 640, 778, 779, 785, 784
530, 635, 636, 642, 641, 779, 780, 786, 785
531, 637, 638, 644, 643, 781, 782, 788, 787
532, 638, 639, 645, 644, 782, 783, 789, 788
533, 639, 640, 646, 645, 783, 784, 790, 789
534, 640, 641, 647, 646, 784, 785, 791, 790
535, 641, 642, 648, 647, 785, 786, 792, 791
536, 643, 644, 650, 649, 787, 788, 794, 793
537, 644, 645, 651, 650, 788, 789, 795, 794
538, 645, 646, 652, 651, 789, 790, 796, 795
539, 646, 647, 653, 652, 790, 791, 797, 796
540, 647, 648, 654, 653, 791, 792, 798, 797
541, 649, 650, 656, 655, 793, 794, 800, 799
542, 650, 651, 657, 656, 794, 795, 801, 800
543, 651, 652, 658, 657, 795, 796, 802, 801
544, 652, 653, 659, 658, 796, 797, 803, 802
545, 653, 654, 660, 659, 797, 798, 804, 803
546, 655, 656, 662, 661, 799, 800, 806, 805
547, 656, 657, 663, 662, 800, 801, 807, 806
548, 657, 658, 664, 663, 801, 802, 808, 807
549, 658, 659, 665, 664, 802, 803, 809, 808
550, 659, 660, 666, 665, 803, 804, 810, 809
551, 661, 662, 668, 667, 805, 806, 812, 811
552, 662, 663, 669, 668, 806, 807, 813, 812
553, 663, 664, 670, 669, 807, 808, 814, 813
554, 664, 665, 671, 670, 808, 809, 815, 814
555, 665, 666, 672, 671, 809, 810, 816, 815
556, 667, 668, 674, 673, 811, 812, 818, 817
557, 668, 669, 675, 674, 812, 813, 819, 818
558, 669, 670, 676, 675, 813, 814, 820, 819
559, 670, 671, 677, 676, 814, 815, 821, 820
560, 671, 672, 678, 677, 815, 816, 822, 821
561, 673, 674, 680, 679, 817, 818, 824, 823
562, 674, 675, 681, 680, 818, 819, 825, 824
563, 675, 676, 682, 681, 819, 820, 826, 825
564, 676, 677, 683, 682, 820, 821, 827, 826
565, 677, 678, 684, 683, 821, 822, 828, 827
566, 679, 680, 686, 685, 823, 824, 830, 829
567, 680, 681, 687, 686, 824, 825, 831, 830
568, 681, 682, 688, 687, 825, 826, 832, 831
569, 682, 683, 689, 688, 826, 827, 833, 832
570, 683, 684, 690, 689, 827, 828, 834, 833
571, 685, 686, 692, 691, 829, 830, 836, 835
572, 686, 687, 693, 692, 830, 831, 837, 836
573, 687, 688, 694, 693, 831, 832, 838, 837
574, 688, 689, 695, 694, 832, 833, 839, 838
575, 689, 690, 696, 695, 833, 834, 840, 839
576, 691, 692, 698, 697, 835, 836, 842, 841
577, 692, 693, 699, 698, 836, 837, 843, 842
578, 693, 694, 700, 699, 837, 838, 844, 843
579, 694, 695, 701, 700, 838, 839, 845, 844
580, 695, 696, 702, 701, 839, 840, 846, 845
581, 697, 698, 704, 703, 841, 842, 848, 847
582, 698, 699, 705, 704, 842, 843, 849, 848
583, 699, 700, 706, 705, 843, 844, 850, 849
584, 700, 701, 707, 706, 844, 845, 851, 850
585, 701, 702, 708, 707, 845, 846, 852, 851
586, 703, 704, 710, 709, 847, 848, 854, 853
587, 704, 705, 711, 710, 848, 849, 855, 854
588, 705, 706, 712, 711, 849, 850, 856, 855
589, 706, 707, 713, 712, 850, 851, 857, 856
590, 707, 708, 714, 713, 851, 852, 858, 857
591, 709, 710, 716, 715, 853, 854, 860, 859
592, 710, 711, 717, 716, 854, 855, 861, 860
593, 711, 712, 718, 717, 855, 856, 862, 861
594, 712, 713, 719, 718, 856, 857, 863, 862
595, 713, 714, 720, 719, 857, 858, 864, 863
596, 715, 716, 578, 577, 859, 860, 722, 721
597, 716, 717, 579, 578, 860, 861, 723, 722
598, 717, 718, 580, 579, 861, 862, 724, 723
599, 718, 719, 581, 580, 862, 863, 725, 724
600, 719, 720, 582, 581, 863, 864, 726, 725
601, 721, 722, 728, 727, 865, 866, 872, 871
602, 722, 723, 729, 728, 866, 867, 873, 872
603, 723, 724, 730, 729, 867, 868, 874, 873
604, 724, 725, 731, 730, 868, 869, 875, 874
605, 725, 726, 732, 731, 869, 870, 876, 875
606, 727, 728, 734, 733, 871, 872, 878, 877
607, 728, 729, 735, 734, 872, 873, 879, 878
608, 729, 730, 736, 735, 873, 874, 880, 879
609, 730, 731, 737, 736, 874, 875, 881, 880
610, 731, 732, 738, 737, 875, 876, 882, 881
611, 733, 734, 740, 739, 877, 878, 884, 883
612, 734, 735, 741, 740, 878, 879, 885, 884
613, 735, 736, 742, 741, 879, 880, 886, 885
614, 736, 737, 743, 742, 880, 881, 887, 886
615, 737, 738, 744, 743, 881, 882, 888, 887
616, 739, 740, 746, 745, 883, 884, 890, 889
617, 740, 741, 747, 746, 884, 885, 891, 890
618, 741, 742, 748, 747, 885, 886, 892, 891
619, 742, 743, 749, 748, 886, 887, 893, 892
620, 743, 744, 750, 749, 887, 888, 894, 893
621, 745, 746, 752, 751, 889, 890, 896, 895
622, 746, 747, 753, 752, 890, 891, 897, 896
623, 747, 748, 754, 753, 891, 892, 898, 897
624, 748, 749, 755, 754, 892, 893, 899, 898
625, 749, 750, 756, 755, 893, 894, 900, 899
626, 751, 752, 758, 757, 895, 896, 902, 901
627, 752, 753, 759, 758, 896, 897, 903, 902
628, 753, 754, 760, 759, 897, 898, 904, 903
629, 754, 755, 761, 760, 898, 899, 905, 904
630, 755, 756, 762, 761, 899, 900, 906, 905
631, 757, 758, 764, 763, 901, 902, 908, 907
632, 758, 759, 765, 764, 902, 903, 909, 908
633, 759, 760, 766, 765, 903, 904, 910, 909
634, 760, 761, 767, 766, 904, 905, 911, 910
635, 761, 762, 768, 767, 905, 906, 912, 911
636, 763, 764, 770, 769, 907, 908, 914, 913
637, 764, 765, 771, 770, 908, 909, 915, 914
638, 765, 766, 772, 771, 909, 910, 916, 915
639, 766, 767, 773, 772, 910, 911, 917, 916
640, 767, 768, 774, 773, 911, 912, 918, 917
641, 769, 770, 776, 775, 913, 914, 920, 919
642, 770, 771, 777, 776, 914, 915, 921, 920
643, 771, 772, 778, 777, 915, 916, 922, 921
644, 772, 773, 779, 778, 916, 917, 923, 922
645, 773, 774, 780, 779, 917, 918, 924, 923
646, 775, 776, 782, 781, 919, 920, 926, 925
647, 776, 777, 783, 782, 920, 921, 927, 926
648, 777, 778, 784, 783, 921, 922, 928, 927
649, 778, 779, 785, 784, 922, 923, 929, 928
650, 779, 780, 786, 785, 923, 924, 930, 929
651, 781, 782, 788, 787, 925, 926, 932, 931
652, 782, 783, 789, 788, 926, 927, 933, 932
653, 783, 784, 790, 789, 927, 928, 934, 933
654, 784, 785, 791, 790, 928, 929, 935, 934
655, 785, 786, 792, 791, 929, 930, 936, 935
656, 787, 788, 794, 793, 931, 932, 938, 937
657, 788, 789, 795, 794, 932, 933, 939, 938
658, 789, 790, 796, 795, 933, 934, 940, 939
659, 790, 791, 797, 796, 934, 935, 941, 940
660, 791, 792, 798, 797, 935, 936, 942, 941
661, 793, 794, 800, 799, 937, 938, 944, 943
662, 794, 795, 801, 800, 938, 939, 945, 944
663, 795, 796, 802, 801, 939, 940, 946, 945
664, 796, 797, 803, 802, 940, 941, 947, 946
665, 797, 798, 804, 803, 941, 942, 948, 947
666, 799, 800, 806, 805, 943, 944, 950, 949
667, 800, 801, 807, 806, 944, 945, 951, 950
668, 801, 802, 808, 807, 945, 946, 952, 951
669, 802, 803, 809, 808, 946, 947, 953, 952
670, 803, 804, 810, 809, 947, 948, 954, 953
671, 805, 806, 812, 811, 949, 950, 956, 955
672, 806, 807, 813, 812, 950, 951, 957, 956
673, 807, 808, 814, 813, 951, 952, 958, 957
674, 808, 809, 815, 814, 952, 953, 959, 958
675, 809, 810, 816, 815, 953, 954, 960, 959
676, 811, 812, 818, 817, 955, 956, 962, 961
677, 812, 813, 819, 818, 956, 957, 963, 962
678, 813, 814, 820, 819, 957, 958, 964, 963
679, 814, 815, 821, 820, 958, 959, 965, 964
680, 815, 816, 822, 821, 959, 960, 966, 965
681, 817, 818, 824, 823, 961, 962, 968, 967
682, 818, 819, 825, 824, 962, 963, 969, 968
683, 819, 820, 826, 825, 963, 964, 970, 969
684, 820, 821, 827, 826, 964, 965, 971, 970
685, 821, 822, 828, 827, 965, 966, 972, 971
686, 823, 824, 830, 829, 967, 968, 974, 973
687, 824, 825, 831, 830, 968, 969, 975, 974
688, 825, 826, 832, 831, 969, 970, 976, 975
689, 826, 827, 833, 832, 970, 971, 977, 976
690, 827, 828, 834, 833, 971, 972, 978, 977
691, 829, 830, 836, 835, 973, 974, 980, 979
692, 830, 831, 837, 836, 974, 975, 981, 980
693, 831, 832, 838, 837, 975, 976, 982, 981
694, 832, 833, 839, 838, 976, 977, 983, 982
695, 833, 834, 840, 839, 977, 978, 984, 983
696, 835, 836, 842, 841, 979, 980, 986, 985
697, 836, 837, 843, 842, 980, 981, 987, 986
698, 837, 838, 844, 843, 981, 982, 988, 987
699, 838, 839, 845, 844, 982, 983, 989, 988
700, 839, 840, 846, 845, 983, 984, 990, 989
701, 841, 842, 848, 847, 985, 986, 992, 991
702, 842, 843, 849, 848, 986, 987, 993, 992
703, 843, 844, 850, 849, 987, 988, 994, 993
704, 844, 845, 851, 850, 988, 989, 995, 994
705, 845, 846, 852, 851, 989, 990, 996, 995
706, 847, 848, 854, 853, 991, 992, 998, 997
707, 848, 849, 855, 854, 992, 993, 999, 998
708, 849, 850, 856, 855, 993, 994, 1000, 999
709, 850, 851, 857, 856, 994, 995, 1001, 1000
710, 851, 852, 858, 857, 995, 996, 1002, 1001
711, 853, 854, 860, 859, 997, 998, 1004, 1003
712, 854, 855, 861, 860, 998, 999, 1005, 1004
713, 855, 856, 862, 861, 999, 1000, 1006, 1005
714, 856, 857, 863, 862, 1000, 1001, 1007, 1006
715, 857, 858, 864, 863, 1001, 1002, 1008, 1007
716, 859, 860, 722, 721, 1003, 1004, 866, 865
717, 860, 861, 723, 722, 1004, 1005, 867, 866
718, 861, 862, 724, 723, 1005, 1006, 868, 867
719, 862, 863, 725, 724, 1006, 1007, 869, 868
720, 863, 864, 726, 725, 1007, 1008, 870, 869
721, 865, 866, 872, 871, 1009, 1010, 1016, 1015
722, 866, 867, 873, 872, 1010, 1011, 1017, 1016
723, 867, 868, 874, 873, 1011, 1012, 1018, 1017
724, 868, 869, 875, 874, 1012, 1013, 1019, 1018
725, 869, 870, 876, 875, 1013, 1014, 1020, 1019
726, 871, 872, 878, 877, 1015, 1016, 1022, 1021
727, 872, 873, 879, 878, 1016, 1017, 1023, 1022
728, 873, 874, 880, 879, 1017, 1018, 1024, 1023
729, 874, 875, 881, 880, 1018, 1019, 1025, 1024
730, 875, 876, 882, 881, 1019, 1020, 1026, 1025
731, 877, 878, 884, 883, 1021, 1022, 1028, 1027
732, 878, 879, 885, 884, 1022, 1023, 1029, 1028
733, 879, 880, 886, 885, 1023, 1024, 1030, 1029
734, 880, 881, 887, 886, 1024, 1025, 1031, 1030
735, 881, 882, 888, 887, 1025, 1026, 1032, 1031
736, 883, 884, 890, 889, 1027, 1028, 1034, 1033
737, 884, 885, 891, 890, 1028, 1029, 1035, 1034
738, 885, 886, 892, 891, 1029, 1030, 1036, 1035
739, 886, 887, 893, 892, 1030, 1031, 1037, 1036
740, 887, 888, 894, 893, 1031, 1032, 1038, 1037
741, 889, 890, 896, 895, 1033, 1034, 1040, 1039
742, 890, 891, 897, 896, 1034, 1035, 1041, 1040
743, 891, 892, 898, 897, 1035, 1036, 1042, 1041
744, 892, 893, 899, 898, 1036, 1037, 1043, 1042
745, 893, 894, 900, 899, 1037, 1038, 1044, 1043
746, 895, 896, 902, 901, 1039, 1040, 1046, 1045
747, 896, 897, 903, 902, 1040, 1041, 1047, 1046
748, 897, 898, 904, 903, 1041, 1042, 1048, 1047
749, 898, 899, 905, 904, 1042, 1043, 1049, 1048
750, 899, 900, 906, 905, 1043, 1044, 1050, 1049
751, 901, 902, 908, 907, 1045, 1046, 1052, 1051
752, 902, 903, 909, 908, 1046, 1047, 1053, 1052
753, 903, 904, 910, 909, 1047, 1048, 1054, 1053
754, 904, 905, 911, 910, 1048, 1049, 1055, 1054
755, 905, 906, 912, 911, 1049, 1050, 1056, 1055
756, 907, 908, 914, 913, 1051, 1052, 1058, 1057
757, 908, 909, 915, 914, 1052, 1053, 1059, 1058
758, 909, 910, 916, 915, 1053, 1054, 1060, 1059
759, 910, 911, 917, 916, 1054, 1055, 1061, 1060
760, 911, 912, 918, 917, 1055, 1056, 1062, 1061
761, 913, 914, 920, 919, 1057, 1058, 1064, 1063
762, 914, 915, 921, 920, 1058, 1059, 1065, 1064
763, 915, 916, 922, 921, 1059, 1060, 1066, 1065
764, 916, 917, 923, 922, 1060, 1061, 1067, 1066
765, 917, 918, 924, 923, 1061, 1062, 1068, 1067
766, 919, 920, 926, 925, 1063, 1064, 1070, 1069
767, 920, 921, 927, 926, 1064, 1065, 1071, 1070
768, 921, 922, 928, 927, 1065, 1066, 1072, 1071
769, 922, 923, 929, 928, 1066, 1067, 1073, 1072
770, 923, 924, 930, 929, 1067, 1068, 1074, 1073
771, 925, 926, 932, 931, 1069, 1070, 1076, 1075
772, 926, 927, 933, 932, 1070, 1071, 1077, 1076
773, 927, 928, 934, 933, 1071, 1072, 1078, 1077
774, 928, 929, 935, 934, 1072, 1073, 1079, 1078
775, 929, 930, 936, 935, 1073, 1074, 1080, 1079
776, 931, 932, 938, 937, 1075, 1076, 1082, 1081
777, 932, 933, 939, 938, 1076, 1077, 1083, 1082
778, 933, 934, 940, 939, 1077, 1078, 1084, 1083
779, 934, 935, 941, 940, 1078, 1079, 1085, 1084
780, 935, 936, 942, 941, 1079, 1080, 1086, 1085
781, 937, 938, 944, 943, 1081, 1082, 1088, 1087
782, 938, 939, 945, 944, 1082, 1083, 1089, 1088
783, 939, 940, 946, 945, 1083, 1084, 1090, 1089
784, 940, 941, 947, 946, 1084, 1085, 1091, 1090
785, 941, 942, 948, 947, 1085, 1086, 1092, 1091
786, 943, 944, 950, 949, 1087, 1088, 1094, 1093
787, 944, 945, 951, 950, 1088, 1089, 1095, 1094
788, 945, 946, 952, 951, 1089, 1090, 1096, 1095
789, 946, 947, 953, 952, 1090, 1091, 1097, 1096
790, 947, 948, 954, 953, 1091, 1092, 1098, 1097
791, 949, 950, 956, 955, 1093, 1094, 1100, 1099
792, 950, 951, 957, 956, 1094, 1095, 1101, 1100
793, 951, 952, 958, 957, 1095, 1096, 1102, 1101
794, 952, 953, 959, 958, 1096, 1097, 1103, 1102
795, 953, 954, 960, 959, 1097, 1098, 1104, 1103
796, 955, 956, 962, 961, 1099, 1100, 1106, 1105
797, 956, 957, 963, 962, 1100, 1101, 1107, 1106
798, 957, 958, 964, 963, 1101, 1102, 1108, 1107
799, 958, 959, 965, 964, 1102, 1103, 1109, 1108
800, 959, 960, 966, 965, 1103, 1104, 1110, 1109
801, 961, 962, 968, 967, 1105, 1106, 1112, 1111
802, 962, 963, 969, 968, 1106, 1107, 1113, 1112
803, 963, 964, 970, 969, 1107, 1108, 1114, 1113
804, 964, 965, 971, 970, 1108, 1109, 1115, 1114
805, 965, 966, 972, 971, 1109, 1110, 1116, 1115
806, 967, 968, 974, 973, 1111, 1112, 1118, 1117
807, 968, 969, 975, 974, 1112, 1113, 1119, 1118
808, 969, 970, 976, 975, 1113, 1114, 1120, 1119
809, 970, 971, 977, 976, 1114, 1115, 1121, 1120
810, 971, 972, 978, 977, 1115, 1116, 1122, 1121
811, 973, 974, 980, 979, 1117, 1118, 1124, 1123
812, 974, 975, 981, 980, 1118, 1119, 1125, 1124
813, 975, 976, 982, 981, 1119, 1120, 1126, 1125
814, 976, 977, 983, 982, 1120, 1121, 1127, 1126
815, 977, 978, 984, 983, 1121, 1122, 1128, 1127
816, 979, 980, 986, 985, 1123, 1124, 1130, 1129
817, 980, 981, 987, 986, 1124, 1125, 1131, 1130
818, 981, 982, 988, 987, 1125, 1126, 1132, 1131
819, 982, 983, 989, 988, 1126, 1127, 1133, 1132
820, 983, 984, 990, 989, 1127, 1128, 1134, 1133
821, 985, 986, 992, 991, 1129, 1130, 1136, 1135
822, 986, 987, 993, 992, 1130, 1131, 1137, 1136
823, 987, 988, 994, 993, 1131, 1132, 1138, 1137
824, 988, 989, 995, 994, 1132, 1133, 1139, 1138
825, 989, 990, 996, 995, 1133, 1134, 1140, 1139
826, 991, 992, 998, 997, 1135, 1136, 1142, 1141
827, 992, 993, 999, 998, 1136, 1137, 1143, 1142
828, 993, 994, 1000, 999, 1137, 1138, 1144, 1143
829, 994, 995, 1001, 1000, 1138, 1139, 1145, 1144
830, 995, 996, 1002, 1001, 1139, 1140, 1146, 1145
831, 997, 998, 1004, 1003, 1141, 1142, 1148, 1147
832, 998, 999, 1005, 1004, 1142, 1143, 1149, 1148
833, 999, 1000, 1006, 1005, 1143, 1144, 1150, 1149
834, 1000, 1001, 1007, 1006, 1144, 1145, 1151, 1150
835, 1001, 1002, 1008, 1007, 1145, 1146, 1152, 1151
836, 1003, 1004, 866, 865, 1147, 1148, 1010, 1009
837, 1004, 1005, 867, 866, 1148, 1149, 1011, 1010
838, 1005, 1006, 868, 867, 1149, 1150, 1012, 1011
839, 1006, 1007, 869, 868, 1150, 1151, 1013, 1012
840, 1007, 1008, 870, 869, 1151, 1152, 1014, 1013
841, 1009, 1010, 1016, 1015, 1153, 1154, 1160, 1159
842, 1010, 1011, 1017, 1016, 1154, 1155, 1161, 1160
843, 1011, 1012, 1018, 1017, 1155, 1156, 1162, 1161
844, 1012, 1013, 1019, 1018, 1156, 1157, 1163, 1162
845, 1013, 1014, 1020, 1019, 1157, 1158, 1164, 1163
846, 1015, 1016, 1022, 1021, 1159, 1160, 1166, 1165
847, 1016, 1017, 1023, 1022, 1160, 1161, 1167, 1166
848, 1017, 1018, 1024, 1023, 1161, 1162, 1168, 1167
849, 1018, 1019, 1025, 1024, 1162, 1163, 1169, 1168
850, 1019, 1020, 1026, 1025, 1163, 1164, 1170, 1169
851, 1021, 1022, 1028, 1027, 1165, 1166, 1172, 1171
852, 1022, 1023, 1029, 1028, 1166, 1167, 1173, 1172
853, 1023, 1024, 1030, 1029, 1167, 1168, 1174, 1173
854, 1024, 1025, 1031, 1030, 1168, 1169, 1175, 1174
855, 1025, 1026, 1032, 1031, 1169, 1170, 1176, 1175
856, 1027, 1028, 1034, 1033, 1171, 1172, 1178, 1177
857, 1028, 1029, 1035, 1034, 1172, 1173, 1179, 1178
858, 1029, 1030, 1036, 1035, 1173, 1174, 1180, 1179
859, 1030, 1031, 1037, 1036, 1174, 1175, 1181, 1180
860, 1031, 1032, 1038, 1037, 1175, 1176, 1182, 1181
861, 1033, 1034, 1040, 1039, 1177, 1178, 1184, 1183
862, 1034, 1035, 1041, 1040, 1178, 1179, 1185, 1184
863, 1035, 1036, 1042, 1041, 1179, 1180, 1186, 1185
864, 1036, 1037, 1043, 1042, 1180, 1181, 1187, 1186
865, 1037, 1038, 1044, 1043, 1181, 1182, 1188, 1187
866, 1039, 1040, 1046, 1045, 1183, 1184, 1190, 1189
867, 1040, 1041, 1047, 1046, 1184, 1185, 1191, 1190
868, 1041, 1042, 1048, 1047, 1185, 1186, 1192, 1191
869, 1042, 1043, 1049, 1048, 1186, 1187, 1193, 1192
870, 1043, 1044, 1050, 1049, 1187, 1188, 1194, 1193
871, 1045, 1046, 1052, 1051, 1189, 1190, 1196, 1195
872, 1046, 1047, 1053, 1052, 1190, 1191, 1197, 1196
873, 1047, 1048, 1054, 1053, 1191, 1192, 1198, 1197
874, 1048, 1049, 1055, 1054, 1192, 1193, 1199, 1198
875, 1049, 1050, 1056, 1055, 1193, 1194, 1200, 1199
876, 1051, 1052, 1058, 1057, 1195, 1196, 1202, 1201
877, 1052, 1053, 1059, 1058, 1196, 1197, 1203, 1202
878, 1053, 1054, 1060, 1059, 1197, 1198, 1204, 1203
879, 1054, 1055, 1061, 1060, 1198, 1199, 1205, 1204
880, 1055, 1056, 1062, 1061, 1199, 1200, 1206, 1205
881, 1057, 1058, 1064, 1063, 1201, 1202, 1208, 1207
882, 1058, 1059, 1065, 1064, 1202, 1203, 1209, 1208
883, 1059, 1060, 1066, 1065, 1203, 1204, 1210, 1209
884, 1060, 1061, 1067, 1066, 1204, 1205, 1211, 1210
885, 1061, 1062, 1068, 1067, 1205, 1206, 1212, 1211
886, 1063, 1064, 1070, 1069, 1207, 1208, 1214, 1213
887, 1064, 1065, 1071, 1070, 1208, 1209, 1215, 1214
888, 1065, 1066, 1072, 1071, 1209, 1210, 1216, 1215
889, 1066, 1067, 1073, 1072, 1210, 1211, 1217, 1216
890, 1067, 1068, 1074, 1073, 1211, 1212, 1218, 1217
891, 1069, 1070, 1076, 1075, 1213, 1214, 1220, 1219
892, 1070, 1071, 1077, 1076, 1214, 1215, 1221, 1220
893, 1071, 1072, 1078, 1077, 1215, 1216, 1222, 1221
894, 1072, 1073, 1079, 1078, 1216, 1217, 1223, 1222
895, 1073, 1074, 1080, 1079, 1217, 1218, 1224, 1223
896, 1075, 1076, 1082, 1081, 1219, 1220, 1226, 1225
897, 1076, 1077, 1083, 1082, 1220, 1221, 1227, 1226
898, 1077, 1078, 1084, 1083, 1221, 1222, 1228, 1227
899, 1078, 1079, 1085, 1084, 1222, 1223, 1229, 1228
900, 1079, 1080, 1086, 1085, 1223, 1224, 1230, 1229
901, 1081, 1082, 1088, 1087, 1225, 1226, 1232, 1231
902, 1082, 1083, 1089, 1088, 1226, 1227, 1233, 1232
903, 1083, 1084, 1090, 1089, 1227, 1228, 1234, 1233
904, 1084, 1085, 1091, 1090, 1228, 1229, 1235, 1234
905, 1085, 1086, 1092, 1091, 1229, 1230, 1236, 1235
906, 1087, 1088, 1094, 1093, 1231, 1232, 1238, 1237
907, 1088, 1089, 1095, 1094, 1232, 1233, 1239, 1238
908, 1089, 1090, 1096, 1095, 1233, 1234, 1240, 1239
909, 1090, 1091, 1097, 1096, 1234, 1235, 1241, 1240
910, 1091, 1092, 1098, 1097, 1235, 1236, 1242, 1241
911, 1093, 1094, 1100, 1099, 1237, 1238, 1244, 1243
912, 1094, 1095, 1101, 1100, 1238, 1239, 1245, 1244
913, 1095, 1096, 1102, 1101, 1239, 1240, 1246, 1245
914, 1096, 1097, 1103, 1102, 1240, 1241, 1247, 1246
915, 1097, 1098, 1104, 1103, 1241, 1242, 1248, 1247
916, 1099, 1100, 1106, 1105, 1243, 1244, 1250, 1249
917, 1100, 1101, 1107, 1106, 1244, 1245, 1251, 1250
918, 1101, 1102, 1108, 1107, 1245, 1246, 1252, 1251
919, 1102, 1103, 1109, 1108, 1246, 1247, 1253, 1252
920, 1103, 1104, 1110, 1109, 1247, 1248, 1254, 1253
921, 1105, 1106, 1112, 1111, 1249, 1250, 1256, 1255
922, 1106, 1107, 1113, 1112, 1250, 1251, 1257, 1256
923, 1107, 1108, 1114, 1113, 1251, 1252, 1258, 1257
924, 1108, 1109, 1115, 1114, 1252, 1253, 1259, 1258
925, 1109, 1110, 1116, 1115, 1253, 1254, 1260, 1259
926, 1111, 1112, 1118, 1117, 1255, 1256, 1262, 1261
927, 1112, 1113, 1119, 1118, 1256, 1257, 1263, 1262
928, 1113, 1114, 1120, 1119, 1257, 1258, 1264, 1263
929, 1114, 1115, 1121, 1120, 1258, 1259, 1265, 1264
930, 1115, 1116, 1122, 1121, 1259, 1260, 1266, 1265
931, 1117, 1118, 1124, 1123, 1261, 1262, 1268, 1267
932, 1118, 1119, 1125, 1124, 1262, 1263, 1269, 1268
933, 1119, 1120, 1126, 1125, 1263, 1264, 1270, 1269
934, 1120, 1121, 1127, 1126, 1264, 1265, 1271, 1270
935, 1121, 1122, 1128, 1127, 1265, 1266, 1272, 1271
936, 1123, 1124, 1130, 1129, 1267, 1268, 1274, 1273
937, 1124, 1125, 1131, 1130, 1268, 1269, 1275, 1274
938, 1125, 1126, 1132, 1131, 1269, 1270, 1276, 1275
939, 1126, 1127, 1133, 1132, 1270, 1271, 1277, 1276
940, 1127, 1128, 1134, 1133, 1271, 1272, 1278, 1277
941, 1129, 1130, 1136, 1135, 1273, 1274, 1280, 1279
942, 1130, 1131, 1137, 1136, 1274, 1275, 1281, 1280
943, 1131, 1132, 1138, 1137, 1275, 1276, 1282, 1281
944, 1132, 1133, 1139, 1138, 1276, 1277, 1283, 1282
945, 1133, 1134, 1140, 1139, 1277, 1278, 1284, 1283
946, 1135, 1136, 1142, 1141, 1279, 1280, 1286, 1285
947, 1136, 1137, 1143, 1142, 1280, 1281, 1287, 1286
948, 1137, 1138, 1144, 1143, 1281, 1282, 1288, 1287
949, 1138, 1139, 1145, 1144, 1282, 1283, 1289, 1288
950, 1139, 1140, 1146, 1145, 1283, 1284, 1290, 1289
951, 1141, 1142, 1148, 1147, 1285, 1286, 1292, 1291
952, 1142, 1143, 1149, 1148, 1286, 1287, 1293, 1292
953, 1143, 1144, 1150, 1149, 1287, 1288, 1294, 1293
954, 1144, 1145, 1151, 1150, 1288, 1289, 1295, 1294
955, 1145, 1146, 1152, 1151, 1289, 1290, 1296, 1295
956, 1147, 1148, 1010, 1009, 1291, 1292, 1154, 1153
957, 1148, 1149, 1011, 1010, 1292, 1293, 1155, 1154
958, 1149, 1150, 1012, 1011, 1293, 1294, 1156, 1155
959, 1150, 1151, 1013, 1012, 1294, 1295, 1157, 1156
960, 1151, 1152, 1014, 1013, 1295, 1296, 1158, 1157
961, 1153, 1154, 1160, 1159, 1297, 1298, 1304, 1303
962, 1154, 1155, 1161, 1160, 1298, 1299, 1305, 1304
963, 1155, 1156, 1162, 1161, 1299, 1300, 1306, 1305
964, 1156, 1157, 1163, 1162, 1300, 1301, 1307, 1306
965, 1157, 1158, 1164, 1163, 1301, 1302, 1308, 1307
966, 1159, 1160, 1166, 1165, 1303, 1304, 1310, 1309
967, 1160, 1161, 1167, 1166, 1304, 1305, 1311, 1310
968, 1161, 1162, 1168, 1167, 1305, 1306, 1312, 1311
969, 1162, 1163, 1169, 1168, 1306, 1307, 1313, 1312
970, 1163, 1164, 1170, 1169, 1307, 1308, 1314, 1313
971, 1165, 1166, 1172, 1171, 1309, 1310, 1316, 1315
972, 1166, 1167, 1173, 1172, 1310, 1311, 1317, 1316
973, 1167, 1168, 1174, 1173, 1311, 1312, 1318, 1317
974, 1168, 1169, 1175, 1174, 1312, 1313, 1319, 1318
975, 1169, 1170, 1176, 1175, 1313, 1314, 1320, 1319
976, 1171, 1172, 1178, 1177, 1315, 1316, 1322, 1321
977, 1172, 1173, 1179, 1178, 1316, 1317, 1323, 1322
978, 1173, 1174, 1180, 1179, 1317, 1318, 1324, 1323
979, 1174, 1175, 1181, 1180, 1318, 1319, 1325, 1324
980, 1175, 1176, 1182, 1181, 1319, 1320, 1326, 1325
981, 1177, 1178, 1184, 1183, 1321, 1322, 1328, 1327
982, 1178, 1179, 1185, 1184, 1322, 1323, 1329, 1328
983, 1179, 1180, 1186, 1185, 1323, 1324, 1330, 1329
984, 1180, 1181, 1187, 1186, 1324, 1325, 1331, 1330
985, 1181, 1182, 1188, 1187, 1325, 1326, 1332, 1331
986, 1183, 1184, 1190, 1189, 1327, 1328, 1334, 1333
987, 1184, 1185, 1191, 1190, 1328, 1329, 1335, 1334
988, 1185, 1186, 1192, 1191, 1329, 1330, 1336, 1335
989, 1186, 1187, 1193, 1192, 1330, 1331, 1337, 1336
990, 1187, 1188, 1194, 1193, 1331, 1332, 1338, 1337
991, 1189, 1190, 1196, 1195, 1333, 1334, 1340, 1339
992, 1190, 1191, 1197, 1196, 1334, 1335, 1341, 1340
993, 1191, 1192, 1198, 1197, 1335, 1336, 1342, 1341
994, 1192, 1193, 1199, 1198, 1336, 1337, 1343, 1342
995, 1193, 1194, 1200, 1199, 1337, 1338, 1344, 1343
996, 1195, 1196, 1202, 1201, 1339, 1340, 1346, 1345
997, 1196, 1197, 1203, 1202, 1340, 1341, 1347, 1346
998, 1197, 1198, 1204, 1203, 1341, 1342, 1348, 1347
999, 1198, 1199, 1205, 1204, 1342, 1343, 1349, 1348
1000, 1199, 1200, 1206, 1205, 1343, 1344, 1350, 1349
1001, 1201, 1202, 1208, 1207, 1345, 1346, 1352, 1351
1002, 1202, 1203, 1209, 1208, 1346, 1347, 1353, 1352
1003, 1203, 1204, 1210, 1209, 1347, 1348, 1354, 1353
1004, 1204, 1205, 1211, 1210, 1348, 1349, 1355, 1354
1005, 1205, 1206, 1212, 1211, 1349, 1350, 1356, 1355
1006, 1207, 1208, 1214, 1213, 1351, 1352, 1358, 1357
1007, 1208, 1209, 1215, 1214, 1352, 1353, 1359, 1358
1008, 1209, 1210, 1216, 1215, 1353, 1354, 1360, 1359
1009, 1210, 1211, 1217, 1216, 1354, 1355, 1361, 1360
1010, 1211, 1212, 1218, 1217, 1355, 1356, 1362, 1361
1011, 1213, 1214, 1220, 1219, 1357, 1358, 1364, 1363
1012, 1214, 1215, 1221, 1220, 1358, 1359, 1365, 1364
1013, 1215, 1216, 1222, 1221, 1359, 1360, 1366, 1365
1014, 1216, 1217, 1223, 1222, 1360, 1361, 1367, 1366
1015, 1217, 1218, 1224, 1223, 1361, 1362, 1368, 1367
1016, 1219, 1220, 1226, 1225, 1363, 1364, 1370, 1369
1017, 1220, 1221, 1227, 1226, 1364, 1365, 1371, 1370
1018, 1221, 1222, 1228, 1227, 1365, 1366, 1372, 1371
1019, 1222, 1223, 1229, 1228, 1366, 1367, 1373, 1372
1020, 1223, 1224, 1230, 1229, 1367, 1368, 1374, 1373
1021, 1225, 1226, 1232, 1231, 1369, 1370, 1376, 1375
1022, 1226, 1227, 1233, 1232, 1370, 1371, 1377, 1376
1023, 1227, 1228, 1234, 1233, 1371, 1372, 1378, 1377
1024, 1228, 1229, 1235, 1234, 1372, 1373, 1379, 1378
1025, 1229, 1230, 1236, 1235, 1373, 1374, 1380, 1379
1026, 1231, 1232, 1238, 1237, 1375, 1376, 1382, 1381
1027, 1232, 1233, 1239, 1238, 1376, 1377, 1383, 1382
1028, 1233, 1234, 1240, 1239, 1377, 1378, 1384, 1383
1029, 1234, 1235, 1241, 1240, 1378, 1379, 1385, 1384
1030, 1235, 1236, 1242, 1241, 1379, 1380, 1386, 1385
1031, 1237, 1238, 1244, 1243, 1381, 1382, 1388, 1387
1032, 1238, 1239, 1245, 1244, 1382, 1383, 1389, 1388
1033, 1239, 1240, 1246, 1245, 1383, 1384, 1390, 1389
1034, 1240, 1241, 1247, 1246, 1384, 1385, 1391, 1390
1035, 1241, 1242, 1248, 1247, 1385, 1386, 1392, 1391
1036, 1243, 1244, 1250, 1249, 1387, 1388, 1394, 1393
1037, 1244, 1245, 1251, 1250, 1388, 1389, 1395, 1394
1038, 1245, 1246, 1252, 1251, 1389, 1390, 1396, 1395
1039, 1246, 1247, 1253, 1252, 1390, 1391, 1397, 1396
1040, 1247, 1248, 1254, 1253, 1391, 1392, 1398, 1397
1041, 1249, 1250, 1256, 1255, 1393, 1394, 1400, 1399
1042, 1250, 1251, 1257, 1256, 1394, 1395, 1401, 1400
1043, 1251, 1252, 1258, 1257, 1395, 1396, 1402, 1401
1044, 1252, 1253, 1259, 1258, 1396, 1397, 1403, 1402
1045, 1253, 1254, 1260, 1259, 1397, 1398, 1404, 1403
1046, 1255, 1256, 1262, 1261, 1399, 1400, 1406, 1405
1047, 1256, 1257, 1263, 1262, 1400, 1401, 1407, 1406
1048, 1257, 1258, 1264, 1263, 1401, 1402, 1408, 1407
1049, 1258, 1259, 1265, 1264, 1402, 1403, 1409, 1408
1050, 1259, 1260, 1266, 1265, 1403, 1404, 1410, 1409
1051, 1261, 1262, 1268, 1267, 1405, 1406, 1412, 1411
1052, 1262, 1263, 1269, 1268, 1406, 1407, 1413, 1412
1053, 1263, 1264, 1270, 1269, 1407, 1408, 1414, 1413
1054, 1264, 1265, 1271, 1270, 1408, 1409, 1415, 1414
1055, 1265, 1266, 1272, 1271, 1409, 1410, 1416, 1415
1056, 1267, 1268, 1274, 1273, 1411, 1412, 1418, 1417
1057, 1268, 1269, 1275, 1274, 1412, 1413, 1419, 1418
1058, 1269, 1270, 1276, 1275, 1413, 1414, 1420, 1419
1059, 1270, 1271, 1277, 1276, 1414, 1415, 1421, 1420
1060, 1271, 1272, 1278, 1277, 1415, 1416, 1422, 1421
1061, 1273, 1274, 1280, 1279, 1417, 1418, 1424, 1423
1062, 1274, 1275, 1281, 1280, 1418, 1419, 1425, 1424
1063, 1275, 1276, 1282, 1281, 1419, 1420, 1426, 1425
1064, 1276, 1277, 1283, 1282, 1420, 1421, 1427, 1426
1065, 1277, 1278, 1284, 1283, 1421, 1422, 1428, 1427
1066, 1279, 1280, 1286, 1285, 1423, 1424, 1430, 1429
1067, 1280, 1281, 1287, 1286, 1424, 1425, 1431, 1430
1068, 1281, 1282, 1288, 1287, 1425, 1426, 1432, 1431
1069, 1282, 1283, 1289, 1288, 1426, 1427, 1433, 1432
1070, 1283, 1284, 1290, 1289, 1427, 1428, 1434, 1433
1071, 1285, 1286, 1292, 1291, 1429, 1430, 1436, 1435
1072, 1286, 1287, 1293, 1292, 1430, 1431, 1437, 1436
1073, 1287, 1288, 1294, 1293, 1431, 1432, 1438, 1437
1074, 1288, 1289, 1295, 1294, 1432, 1433, 1439, 1438
1075, 1289, 1290, 1296, 1295, 1433, 1434, 1440, 1439
1076, 1291, 1292, 1154, 1153, 1435, 1436, 1298, 1297
1077, 1292, 1293, 1155, 1154, 1436, 1437, 1299, 1298
1078, 1293, 1294, 1156, 1155, 1437, 1438, 1300, 1299
1079, 1294, 1295, 1157, 1156, 1438, 1439, 1301, 1300
1080, 1295, 1296, 1158, 1157, 1439, 1440, 1302, 1301
1081, 1297, 1298, 1304, 1303, 1441, 1442, 1448, 1447
1082, 1298, 1299, 1305, 1304, 1442, 1443, 1449, 1448
1083, 1299, 1300, 1306, 1305, 1443, 1444, 1450, 1449
1084, 1300, 1301, 1307, 1306, 1444, 1445, 1451, 1450
1085, 1301, 1302, 1308, 1307, 1445, 1446, 1452, 1451
1086, 1303, 1304, 1310, 1309, 1447, 1448, 1454, 1453
1087, 1304, 1305, 1311, 1310, 1448, 1449, 1455, 1454
1088, 1305, 1306, 1312, 1311, 1449, 1450, 1456, 1455
1089, 1306, 1307, 1313, 1312, 1450, 1451, 1457, 1456
1090, 1307, 1308, 1314, 1313, 1451, 1452, 1458, 1457
1091, 1309, 1310, 1316, 1315, 1453, 1454, 1460, 1459
1092, 1310, 1311, 1317, 1316, 1454, 1455, 1461, 1460
1093, 1311, 1312, 1318, 1317, 1455, 1456, 1462, 1461
1094, 1312, 1313, 1319, 1318, 1456, 1457, 1463, 1462
1095, 1313, 1314, 1320, 1319, 1457, 1458, 1464, 1463
1096, 1315, 1316, 1322, 1321, 1459, 1460, 1466, 1465
1097, 1316, 1317, 1323, 1322, 1460, 1461, 1467, 1466
1098, 1317, 1318, 1324, 1323, 1461, 1462, 1468, 1467
1099, 1318, 1319, 1325, 1324, 1462, 1463, 1469, 1468
1100, 1319, 1320, 1326, 1325, 1463, 1464, 1470, 1469
1101, 1321, 1322, 1328, 1327, 1465, 1466, 1472, 1471
1102, 1322, 1323, 1329, 1328, 1466, 1467, 1473, 1472
1103, 1323, 1324, 1330, 1329, 1467, 1468, 1474, 1473
1104, 1324, 1325, 1331, 1330, 1468, 1469, 1475, 1474
1105, 1325, 1326, 1332, 1331, 1469, 1470, 1476, 1475
1106, 1327, 1328, 1334, 1333, 1471, 1472, 1478, 1477
1107, 1328, 1329, 1335, 1334, 1472, 1473, 1479, 1478
1108, 1329, 1330, 1336, 1335, 1473, 1474, 1480, 1479
1109, 1330, 1331, 1337, 1336, 1474, 1475, 1481, 1480
1110, 1331, 1332, 1338, 1337, 1475, 1476, 1482, 1481
1111, 1333, 1334, 1340, 1339, 1477, 1478, 1484, 1483
1112, 1334, 1335, 1341, 1340, 1478, 1479, 1485, 1484
1113, 1335, 1336, 1342, 1341, 1479, 1480, 1486, 1485
1114, 1336, 1337, 1343, 1342, 1480, 1481, 1487, 1486
1115, 1337, 1338, 1344, 1343, 1481, 1482, 1488, 1487
1116, 1339, 1340, 1346, 1345, 1483, 1484, 1490, 1489
1117, 1340, 1341, 1347, 1346, 1484, 1485, 1491, 1490
1118, 1341, 1342, 1348, 1347, 1485, 1486, 1492, 1491
1119, 1342, 1343, 1349, 1348, 1486, 1487, 1493, 1492
1120, 1343, 1344, 1350, 1349, 1487, 1488, 1494, 1493
1121, 1345, 1346, 1352, 1351, 1489, 1490, 1496, 1495
1122, 1346, 1347, 1353, 1352, 1490, 1491, 1497, 1496
1123, 1347, 1348, 1354, 1353, 1491, 1492, 1498, 1497
1124, 1348, 1349, 1355, 1354, 1492, 1493, 1499, 1498
1125, 1349, 1350, 1356, 1355, 1493, 1494, 1500, 1499
1126, 1351, 1352, 1358, 1357, 1495, 1496, 1502, 1501
1127, 1352, 1353, 1359, 1358, 1496, 1497, 1503, 1502
1128, 1353, 1354, 1360, 1359, 1497, 1498, 1504, 1503
1129, 1354, 1355, 1361, 1360, 1498, 1499, 1505, 1504
1130, 1355, 1356, 1362, 1361, 1499, 1500, 1506, 1505
1131, 1357, 1358, 1364, 1363, 1501, 1502, 1508, 1507
1132, 1358, 1359, 1365, 1364, 1502, 1503, 1509, 1508
1133, 1359, 1360, 1366, 1365, 1503, 1504, 1510, 1509
1134, 1360, 1361, 1367, 1366, 1504, 1505, 1511, 1510
1135, 1361, 1362, 1368, 1367, 1505, 1506, 1512, 1511
1136, 1363, 1364, 1370, 1369, 1507, 1508, 1514, 1513
1137, 1364, 1365, 1371, 1370, 1508, 1509, 1515, 1514
1138, 1365, 1366, 1372, 1371, 1509, 1510, 1516, 1515
1139, 1366, 1367, 1373, 1372, 1510, 1511, 1517, 1516
1140, 1367, 1368, 1374, 1373, 1511, 1512, 1518, 1517
1141, 1369, 1370, 1376, 1375, 1513, 1514, 1520, 1519
1142, 1370, 1371, 1377, 1376, 1514, 1515, 1521, 1520
1143, 1371, 1372, 1378, 1377, 1515, 1516, 1522, 1521
1144, 1372, 1373, 1379, 1378, 1516, 1517, 1523, 1522
1145, 1373, 1374, 1380, 1379, 1517, 1518, 1524, 1523
1146, 1375, 1376, 1382, 1381, 1519, 1520, 1526, 1525
1147, 1376, 1377, 1383, 1382, 1520, 1521, 1527, 1526
1148, 1377, 1378, 1384, 1383, 1521, 1522, 1528, 1527
1149, 1378, 1379, 1385, 1384, 1522, 1523, 1529, 1528
1150, 1379, 1380, 1386, 1385, 1523, 1524, 1530, 1529
1151, 1381, 1382, 1388, 1387, 1525, 1526, 1532, 1531
1152, 1382, 1383, 1389, 1388, 1526, 1527, 1533, 1532
1153, 1383, 1384, 1390, 1389, 1527, 1528, 1534, 1533
1154, 1384, 1385, 1391, 1390, 1528, 1529, 1535, 1534
1155, 1385, 1386, 1392, 1391, 1529, 1530, 1536, 1535
1156, 1387, 1388, 1394, 1393, 1531, 1532, 1538, 1537
1157, 1388, 1389, 1395, 1394, 1532, 1533, 1539, 1538
1158, 1389, 1390, 1396, 1395, 1533, 1534, 1540, 1539
1159, 1390, 1391, 1397, 1396, 1534, 1535, 1541, 1540
1160, 1391, 1392, 1398, 1397, 1535, 1536, 1542, 1541
1161, 1393, 1394, 1400, 1399, 1537, 1538, 1544, 1543
1162, 1394, 1395, 1401, 1400, 1538, 1539, 1545, 1544
1163, 1395, 1396, 1402, 1401, 1539, 1540, 1546, 1545
1164, 1396, 1397, 1403, 1402, 1540, 1541, 1547, 1546
1165, 1397, 1398, 1404, 1403, 1541, 1542, 1548, 1547
1166, 1399, 1400, 1406, 1405, 1543, 1544, 1550, 1549
1167, 1400, 1401, 1407, 1406, 1544, 1545, 1551, 1550
1168, 1401, 1402, 1408, 1407, 1545, 1546, 1552, 1551
1169, 1402, 1403, 1409, 1408, 1546, 1547, 1553, 1552
1170, 1403, 1404, 1410, 1409, 1547, 1548, 1554, 1553
1171, 1405, 1406, 1412, 1411, 1549, 1550, 1556, 1555
1172, 1406, 1407, 1413, 1412, 1550, 1551, 1557, 1556
1173, 1407, 1408, 1414, 1413, 1551, 1552, 1558, 1557
1174, 1408, 1409, 1415, 1414, 1552, 1553, 1559, 1558
1175, 1409, 1410, 1416, 1415, 1553, 1554, 1560, 1559
1176, 1411, 1412, 1418, 1417, 1555, 1556, 1562, 1561
1177, 1412, 1413, 1419, 1418, 1556, 1557, 1563, 1562
1178, 1413, 1414, 1420, 1419, 1557, 1558, 1564, 1563
1179, 1414, 1415, 1421, 1420, 1558, 1559, 1565, 1564
1180, 1415, 1416, 1422, 1421, 1559, 1560, 1566, 1565
1181, 1417, 1418, 1424, 1423, 1561, 1562, 1568, 1567
1182, 1418, 1419, 1425, 1424, 1562, 1563, 1569, 1568
1183, 1419, 1420, 1426, 1425, 1563, 1564, 1570, 1569
1184, 1420, 1421, 1427, 1426, 1564, 1565, 1571, 1570
1185, 1421, 1422, 1428, 1427, 1565, 1566, 1572, 1571
1186, 1423, 1424, 1430, 1429, 1567, 1568, 1574, 1573
1187, 1424, 1425, 1431, 1430, 1568, 1569, 1575, 1574
1188, 1425, 1426, 1432, 1431, 1569, 1570, 1576, 1575
1189, 1426, 1427, 1433, 1432, 1570, 1571, 1577, 1576
1190, 1427, 1428, 1434, 1433, 1571, 1572, 1578, 1577
1191, 1429, 1430, 1436, 1435, 1573, 1574, 1580, 1579
1192, 1430, 1431, 1437, 1436, 1574, 1575, 1581, 1580
1193, 1431, 1432, 1438, 1437, 1575, 1576, 1582, 1581
1194, 1432, 1433, 1439, 1438, 1576, 1577, 1583, 1582
1195, 1433, 1434, 1440, 1439, 1577, 1578, 1584, 1583
1196, 1435, 1436, 1298, 1297, 1579, 1580, 1442, 1441
1197, 1436, 1437, 1299, 1298, 1580, 1581, 1443, 1442
1198, 1437, 1438, 1300, 1299, 1581, 1582, 1444, 1443
1199, 1438, 1439, 1301, 1300, 1582, 1583, 1445, 1444
1200, 1439, 1440, 1302, 1301, 1583, 1584, 1446, 1445
*Solid Section, elset=HOST, material=MATRIX
,
*End Part
*Part, name=EMBFIB
** embmesh generated fibers
*Node, nset=EMBMESH_NODES
100000, 2.1, 0, 0
100001, 2.1, 0, 5
100002, 2.05964908885, 0.409689676234, 0
100003, 2.05964908885, 0.409689676234, 5
100004, 1.94014701827, 0.803635207967, 0
100005, 1.94014701827, 0.803635207967, 5
100006, 1.74608618584, 1.16669748934, 0
100007, 1.74608618584, 1.16669748934, 5
100008, 1.48492424049, 1.48492424049, 0
100009, 1.48492424049, 1.48492424049, 5
100010, 1.16669748934, 1.74608618584, 0
100011, 1.16669748934, 1.74608618584, 5
100012, 0.803635207967, 1.94014701827, 0
100013, 0.803635207967, 1.94014701827, 5
100014, 0.409689676234, 2.05964908885, 0
100015, 0.409689676234, 2.05964908885, 5
100016, 1.2858791391e-16, 2.1, 0
100017, 1.2858791391e-16, 2.1, 5
100018, -0.409689676234, 2.05964908885, 0
100019, -0.409689676234, 2.05964908885, 5
100020, -0.803635207967, 1.94014701827, 0
100021, -0.803635207967, 1.94014701827, 5
100022, -1.16669748934, 1.74608618584, 0
100023, -1.16669748934, 1.74608618584, 5
100024, -1.48492424049, 1.48492424049, 0
100025, -1.48492424049, 1.48492424049, 5
100026, -1.74608618584, 1.16669748934, 0
100027, -1.74608618584, 1.16669748934, 5
100028, -1.94014701827, 0.803635207967, 0
100029, -1.94014701827, 0.803635207967, 5
100030, -2.05964908885, 0.409689676234, 0
100031, -2.05964908885, 0.409689676234, 5
100032, -2.1, 2.57175827821e-16, 0
100033, -2.1, 2.57175827821e-16, 5
100034, -2.05964908885, -0.409689676234, 0
100035, -2.05964908885, -0.409689676234, 5
100036, -1.94014701827, -0.803635207967, 0
100037, -1.94014701827, -0.803635207967, 5
100038, -1.74608618584, -1.16669748934, 0
100039, -1.74608618584, -1.16669748934, 5
100040, -1.48492424049, -1.48492424049, 0
100041, -1.48492424049, -1.48492424049, 5
100042, -1.16669748934, -1.74608618584, 0
100043, -1.16669748934, -1.74608618584, 5
100044, -0.803635207967, -1.94014701827, 0
100045, -0.803635207967, -1.94014701827, 5
100046, -0.409689676234, -2.05964908885, 0
100047, -0.409689676234, -2.05964908885, 5
100048, -3.85763741731e-16, -2.1, 0
100049, -3.85763741731e-16, -2.1, 5
100050, 0.409689676234, -2.05964908885, 0
100051, 0.409689676234, -2.05964908885, 5
100052, 0.803635207967, -1.94014701827, 0
100053, 0.803635207967, -1.94014701827, 5
100054, 1.16669748934, -1.74608618584, 0
100055, 1.16669748934, -1.74608618584, 5
100056, 1.48492424049, -1.48492424049, 0
100057, 1.48492424049, -1.48492424049, 5
100058, 1.74608618584, -1.16669748934, 0
100059, 1.74608618584, -1.16669748934, 5
100060, 1.94014701827, -0.803635207967, 0
100061, 1.94014701827, -0.803635207967, 5
100062, 2.05964908885, -0.409689676234, 0
100063, 2.05964908885, -0.409689676234, 5
100064, 2.3, 0, 0
100065, 2.3, 0, 5
100066, 2.25580614493, 0.448707740637, 0
100067, 2.25580614493, 0.448707740637, 5
100068, 2.12492292478, 0.88017189444, 0
100069, 2.12492292478, 0.88017189444, 5
100070, 1.9123801083, 1.27781153595, 0
100071, 1.9123801083, 1.27781153595, 5
100072, 1.62634559673, 1.62634559673, 0
100073, 1.62634559673, 1.62634559673, 5
100074, 1.27781153595, 1.9123801083, 0
100075, 1.27781153595, 1.9123801083, 5
100076, 0.88017189444, 2.12492292478, 0
100077, 0.88017189444, 2.12492292478, 5
100078, 0.448707740637, 2.25580614493, 0
100079, 0.448707740637, 2.25580614493, 5
100080, 1.40834381902e-16, 2.3, 0
100081, 1.40834381902e-16, 2.3, 5
100082, -0.448707740637, 2.25580614493, 0
100083, -0.448707740637, 2.25580614493, 5
100084, -0.88017189444, 2.12492292478, 0
100085, -0.88017189444, 2.12492292478, 5
100086, -1.27781153595, 1.9123801083, 0
100087, -1.27781153595, 1.9123801083, 5
100088, -1.62634559673, 1.62634559673, 0
100089, -1.62634559673, 1.62634559673, 5
100090, -1.9123801083, 1.27781153595, 0
100091, -1.9123801083, 1.27781153595, 5
100092, -2.12492292478, 0.88017189444, 0
100093, -2.12492292478, 0.88017189444, 5
100094, -2.25580614493, 0.448707740637, 0
100095, -2.25580614493, 0.448707740637, 5
100096, -2.3, 2.81668763804e-16, 0
100097, -2.3, 2.81668763804e-16, 5
100098, -2.25580614493, -0.448707740637, 0
100099, -2.25580614493, -0.448707740637, 5
100100, -2.12492292478, -0.88017189444, 0
100101, -2.12492292478, -0.88017189444, 5
100102, -1.9123801083, -1.27781153595, 0
100103, -1.9123801083, -1.27781153595, 5
100104, -1.62634559673, -1.62634559673, 0
100105, -1.62634559673, -1.62634559673, 5
100106, -1.27781153595, -1.9123801083, 0
100107, -1.27781153595, -1.9123801083, 5
100108, -0.88017189444, -2.12492292478, 0
100109, -0.88017189444, -2.12492292478, 5
100110, -0.448707740637, -2.25580614493, 0
100111, -0.448707740637, -2.25580614493, 5
100112, -4.22503145706e-16, -2.3, 0
100113, -4.22503145706e-16, -2.3, 5
100114, 0.448707740637, -2.25580614493, 0
100115, 0.448707740637, -2.25580614493, 5
100116, 0.88017189444, -2.12492292478, 0
100117, 0.88017189444, -2.12492292478, 5
100118, 1.27781153595, -1.9123801083, 0
100119, 1.27781153595, -1.9123801083, 5
100120, 1.62634559673, -1.62634559673, 0
100121, 1.62634559673, -1.62634559673, 5
100122, 1.9123801083, -1.27781153595, 0
100123, 1.9123801083, -1.27781153595, 5
100124, 2.12492292478, -0.88017189444, 0
100125, 2.12492292478, -0.88017189444, 5
100126, 2.25580614493, -0.448707740637, 0
100127, 2.25580614493, -0.448707740637, 5
100128, 2.5, 0, 0
100129, 2.5, 0, 5
100130, 2.45196320101, 0.48772580504, 0
100131, 2.45196320101, 0.48772580504, 5
100132, 2.30969883128, 0.956708580913, 0
100133, 2.30969883128, 0.956708580913, 5
100134, 2.07867403076, 1.38892558255, 0
100135, 2.07867403076, 1.38892558255, 5
100136, 1.76776695297, 1.76776695297, 0
100137, 1.76776695297, 1.76776695297, 5
100138, 1.38892558255, 2.07867403076, 0
100139, 1.38892558255, 2.07867403076, 5
100140, 0.956708580913, 2.30969883128, 0
100141, 0.956708580913, 2.30969883128, 5
100142, 0.48772580504, 2.45196320101, 0
100143, 0.48772580504, 2.45196320101, 5
100144, 1.53080849893e-16, 2.5, 0
100145, 1.53080849893e-16, 2.5, 5
100146, -0.48772580504, 2.45196320101, 0
100147, -0.48772580504, 2.45196320101, 5
100148, -0.956708580913, 2.30969883128, 0
100149, -0.956708580913, 2.30969883128, 5
100150, -1.38892558255, 2.07867403076, 0
100151, -1.38892558255, 2.07867403076, 5
100152, -1.76776695297, 1.76776695297, 0
100153, -1.76776695297, 1.76776695297, 5
100154, -2.07867403076, 1.38892558255, 0
100155, -2.07867403076, 1.38892558255, 5
100156, -2.30969883128, 0.956708580913, 0
100157, -2.30969883128, 0.956708580913, 5
100158, -2.45196320101, 0.48772580504, 0
100159, -2.45196320101, 0.48772580504, 5
100160, -2.5, 3.06161699787e-16, 0
100161, -2.5, 3.06161699787e-16, 5
100162, -2.45196320101, -0.48772580504, 0
100163, -2.45196320101, -0.48772580504, 5
100164, -2.30969883128, -0.956708580913, 0
100165, -2.30969883128, -0.956708580913, 5
100166, -2.07867403076, -1.38892558255, 0
100167, -2.07867403076, -1.38892558255, 5
100168, -1.76776695297, -1.76776695297, 0
100169, -1.76776695297, -1.76776695297, 5
100170, -1.38892558255, -2.07867403076, 0
100171, -1.38892558255, -2.07867403076, 5
100172, -0.956708580913, -2.30969883128, 0
100173, -0.956708580913, -2.30969883128, 5
100174, -0.48772580504, -2.45196320101, 0
100175, -0.48772580504, -2.45196320101, 5
100176, -4.5924254968e-16, -2.5, 0
100177, -4.5924254968e-16, -2.5, 5
100178, 0.48772580504, -2.45196320101, 0
100179, 0.48772580504, -2.45196320101, 5
100180, 0.956708580913, -2.30969883128, 0
100181, 0.956708580913, -2.30969883128, 5
100182, 1.38892558255, -2.07867403076, 0
100183, 1.38892558255, -2.07867403076, 5
100184, 1.76776695297, -1.76776695297, 0
100185, 1.76776695297, -1.76776695297, 5
100186, 2.07867403076, -1.38892558255, 0
100187, 2.07867403076, -1.38892558255, 5
100188, 2.30969883128, -0.956708580913, 0
100189, 2.30969883128, -0.956708580913, 5
100190, 2.45196320101, -0.48772580504, 0
100191, 2.45196320101, -0.48772580504, 5
100192, 2.7, 0, 0
100193, 2.7, 0, 5
100194, 2.64812025709, 0.526743869444, 0
100195, 2.64812025709, 0.526743869444, 5
100196, 2.49447473778, 1.03324526739, 0
100197, 2.49447473778, 1.03324526739, 5
100198, 2.24496795322, 1.50003962915, 0
100199, 2.24496795322, 1.50003962915, 5
100200, 1.9091883092, 1.9091883092, 0
100201, 1.9091883092, 1.9091883092, 5
100202, 1.50003962915, 2.24496795322, 0
100203, 1.50003962915, 2.24496795322, 5
100204, 1.03324526739, 2.49447473778, 0
100205, 1.03324526739, 2.49447473778, 5
100206, 0.526743869444, 2.64812025709, 0
100207, 0.526743869444, 2.64812025709, 5
100208, 1.65327317885e-16, 2.7, 0
100209, 1.65327317885e-16, 2.7, 5
100210, -0.526743869444, 2.64812025709, 0
100211, -0.526743869444, 2.64812025709, 5
100212, -1.03324526739, 2.49447473778, 0
100213, -1.03324526739, 2.49447473778, 5
100214, -1.50003962915, 2.24496795322, 0
100215, -1.50003962915, 2.24496795322, 5
100216, -1.9091883092, 1.9091883092, 0
100217, -1.9091883092, 1.9091883092, 5
100218, -2.24496795322, 1.50003962915, 0
100219, -2.24496795322, 1.50003962915, 5
100220, -2.49447473778, 1.03324526739, 0
100221, -2.49447473778, 1.03324526739, 5
100222, -2.64812025709, 0.526743869444, 0
100223, -2.64812025709, 0.526743869444, 5
100224, -2.7, 3.3065463577e-16, 0
100225, -2.7, 3.3065463577e-16, 5
100226, -2.64812025709, -0.526743869444, 0
100227, -2.64812025709, -0.526743869444, 5
100228, -2.49447473778, -1.03324526739, 0
100229, -2.49447473778, -1.03324526739, 5
100230, -2.24496795322, -1.50003962915, 0
100231, -2.24496795322, -1.50003962915, 5
100232, -1.9091883092, -1.9091883092, 0
100233, -1.9091883092, -1.9091883092, 5
100234, -1.50003962915, -2.24496795322, 0
100235, -1.50003962915, -2.24496795322, 5
100236, -1.03324526739, -2.49447473778, 0
100237, -1.03324526739, -2.49447473778, 5
100238, -0.526743869444, -2.64812025709, 0
100239, -0.526743869444, -2.64812025709, 5
100240, -4.95981953655e-16, -2.7, 0
100241, -4.95981953655e-16, -2.7, 5
100242, 0.526743869444, -2.64812025709, 0
100243, 0.526743869444, -2.64812025709, 5
100244, 1.03324526739, -2.49447473778, 0
100245, 1.03324526739, -2.49447473778, 5
100246, 1.50003962915, -2.24496795322, 0
100247, 1.50003962915, -2.24496795322, 5
100248, 1.9091883092, -1.9091883092, 0
100249, 1.9091883092, -1.9091883092, 5
100250, 2.24496795322, -1.50003962915, 0
100251, 2.24496795322, -1.50003962915, 5
100252, 2.49447473778, -1.03324526739, 0
100253, 2.49447473778, -1.03324526739, 5
100254, 2.64812025709, -0.526743869444, 0
100255, 2.64812025709, -0.526743869444, 5
100256, 2.9, 0, 0
100257, 2.9, 0, 5
100258, 2.84427731317, 0.565761933847, 0
100259, 2.84427731317, 0.565761933847, 5
100260, 2.67925064428, 1.10978195386, 0
100261, 2.67925064428, 1.10978195386, 5
100262, 2.41126187568, 1.61115367576, 0
100263, 2.41126187568, 1.61115367576, 5
100264, 2.05060966544, 2.05060966544, 0
100265, 2.05060966544, 2.05060966544, 5
100266, 1.61115367576, 2.41126187568, 0
100267, 1.61115367576, 2.41126187568, 5
100268, 1.10978195386, 2.67925064428, 0
100269, 1.10978195386, 2.67925064428, 5
100270, 0.565761933847, 2.84427731317, 0
100271, 0.565761933847, 2.84427731317, 5
100272, 1.77573785876e-16, 2.9, 0
100273, 1.77573785876e-16, 2.9, 5
100274, -0.565761933847, 2.84427731317, 0
100275, -0.565761933847, 2.84427731317, 5
100276, -1.10978195386, 2.67925064428, 0
100277, -1.10978195386, 2.67925064428, 5
100278, -1.61115367576, 2.41126187568, 0
100279, -1.61115367576, 2.41126187568, 5
100280, -2.05060966544, 2.05060966544, 0
100281, -2.05060966544, 2.05060966544, 5
100282, -2.41126187568, 1.61115367576, 0
100283, -2.41126187568, 1.61115367576, 5
100284, -2.67925064428, 1.10978195386, 0
100285, -2.67925064428, 1.10978195386, 5
100286, -2.84427731317, 0.565761933847, 0
100287, -2.84427731317, 0.565761933847, 5
100288, -2.9, 3.55147571753e-16, 0
100289, -2.9, 3.55147571753e-16, 5
100290, -2.84427731317, -0.565761933847, 0
100291, -2.84427731317, -0.565761933847, 5
100292, -2.67925064428, -1.10978195386, 0
100293, -2.67925064428, -1.10978195386, 5
100294, -2.41126187568, -1.61115367576, 0
100295, -2.41126187568, -1.61115367576, 5
100296, -2.05060966544, -2.05060966544, 0
100297, -2.05060966544, -2.05060966544, 5
100298, -1.61115367576, -2.41126187568, 0
100299, -1.61115367576, -2.41126187568, 5
100300, -1.10978195386, -2.67925064428, 0
100301, -1.10978195386, -2.67925064428, 5
100302, -0.565761933847, -2.84427731317, 0
100303, -0.565761933847, -2.84427731317, 5
100304, -5.32721357629e-16, -2.9, 0
100305, -5.32721357629e-16, -2.9, 5
100306, 0.565761933847, -2.84427731317, 0
100307, 0.565761933847, -2.84427731317, 5
100308, 1.10978195386, -2.67925064428, 0
100309, 1.10978195386, -2.67925064428, 5
100310, 1.61115367576, -2.41126187568, 0
100311, 1.61115367576, -2.41126187568, 5
100312, 2.05060966544, -2.05060966544, 0
100313, 2.05060966544, -2.05060966544, 5
100314, 2.41126187568, -1.61115367576, 0
100315, 2.41126187568, -1.61115367576, 5
100316, 2.67925064428, -1.10978195386, 0
100317, 2.67925064428, -1.10978195386, 5
100318, 2.84427731317, -0.565761933847, 0
100319, 2.84427731317, -0.565761933847, 5
*Element, type=T3D2, elset=EMBMESH_FIBERS
100000, 100000,100001
100001, 100002,100003
100002, 100004,100005
100003, 100006,100007
100004, 100008,100009
100005, 100010,100011
100006, 100012,100013
100007, 100014,100015
100008, 100016,100017
100009, 100018,100019
100010, 100020,100021
100011, 100022,100023
100012, 100024,100025
100013, 100026,100027
100014, 100028,100029
100015, 100030,100031
100016, 100032,100033
100017, 100034,100035
100018, 100036,100037
100019, 100038,100039
100020, 100040,100041
100021, 100042,100043
100022, 100044,100045
100023, 100046,100047
100024, 100048,100049
100025, 100050,100051
100026, 100052,100053
100027, 100054,100055
100028, 100056,100057
100029, 100058,100059
100030, 100060,100061
100031, 100062,100063
100032, 100064,100065
100033, 100066,100067
100034, 100068,100069
100035, 100070,100071
100036, 100072,100073
100037, 100074,100075
100038, 100076,100077
100039, 100078,100079
100040, 100080,100081
100041, 100082,100083
100042, 100084,100085
100043, 100086,100087
100044, 100088,100089
100045, 100090,100091
100046, 100092,100093
100047, 100094,100095
100048, 100096,100097
100049, 100098,100099
100050, 100100,100101
100051, 100102,100103
100052, 100104,100105
100053, 100106,100107
100054, 100108,100109
100055, 100110,100111
100056, 100112,100113
100057, 100114,100115
100058, 100116,100117
100059, 100118,100119
100060, 100120,100121
100061, 100122,100123
100062, 100124,100125
100063, 100126,100127
100064, 100128,100129
100065, 100130,100131
100066, 100132,100133
100067, 100134,100135
100068, 100136,100137
100069, 100138,100139
100070, 100140,100141
100071, 100142,100143
100072, 100144,100145
100073, 100146,100147
100074, 100148,100149
100075, 100150,100151
100076, 100152,100153
100077, 100154,100155
100078, 100156,100157
100079, 100158,100159
100080, 100160,100161
100081, 100162,100163
100082, 100164,100165
100083, 100166,100167
100084, 100168,100169
100085, 100170,100171
100086, 100172,100173
100087, 100174,100175
100088, 100176,100177
100089, 100178,100179
100090, 100180,100181
100091, 100182,100183
100092, 100184,100185
100093, 100186,100187
100094, 100188,100189
100095, 100190,100191
100096, 100192,100193
100097, 100194,100195
100098, 100196,100197
100099, 100198,100199
100100, 100200,100201
100101, 100202,100203
100102, 100204,100205
100103, 100206,100207
100104, 100208,100209
100105, 100210,100211
100106, 100212,100213
100107, 100214,100215
100108, 100216,100217
100109, 100218,100219
100110, 100220,100221
100111, 100222,100223
100112, 100224,100225
100113, 100226,100227
100114, 100228,100229
100115, 100230,100231
100116, 100232,100233
100117, 100234,100235
100118, 100236,100237
100119, 100238,100239
100120, 100240,100241
100121, 100242,100243
100122, 100244,100245
100123, 100246,100247
100124, 100248,100249
100125, 100250,100251
100126, 100252,100253
100127, 100254,100255
100128, 100256,100257
100129, 100258,100259
100130, 100260,100261
100131, 100262,100263
100132, 100264,100265
100133, 100266,100267
100134, 100268,100269
100135, 100270,100271
100136, 100272,100273
100137, 100274,100275
100138, 100276,100277
100139, 100278,100279
100140, 100280,100281
100141, 100282,100283
100142, 100284,100285
100143, 100286,100287
100144, 100288,100289
100145, 100290,100291
100146, 100292,100293
100147, 100294,100295
100148, 100296,100297
100149, 100298,100299
100150, 100300,100301
100151, 100302,100303
100152, 100304,100305
100153, 100306,100307
100154, 100308,100309
100155, 100310,100311
100156, 100312,100313
100157, 100314,100315
100158, 100316,100317
100159, 100318,100319
*Solid Section, elset=EMBMESH_FIBERS, material=FIBER
0.0314159265358979
*End Part
*Assembly, name=Assembly
*Instance, name=PLATE-1, part=PLATE
*End Instance
*Nset, nset=LEFT, instance=PLATE-1
1, 2, 3, 4, 5, 6, 7, 8, 9, 10, 11, 12
13, 14, 15, 16, 17, 18, 19, 20, 21, 22, 23, 24
25, 26, 27, 28, 29, 30, 31, 32, 33, 34, 35, 36
37, 38, 39, 40, 41, 42, 43, 44, 45, 46, 47, 48
49, 50, 51, 52, 53, 54, 55, 56, 57, 58, 59, 60
61, 62, 63, 64, 65, 66, 67, 68, 69, 70, 71, 72
73, 74, 75, 76, 77, 78, 79, 80, 81, 82, 83, 84
85, 86, 87, 88, 89, 90, 91, 92, 93, 94, 95, 96
97, 98, 99, 100, 101, 102, 103, 104, 105, 106, 107, 108
109, 110, 111, 112, 113, 114, 115, 116, 117, 118, 119, 120
121, 122, 123, 124, 125, 126, 127, 128, 129, 130, 131, 132
133, 134, 135, 136, 137, 138, 139, 140, 141, 142, 143, 144
*Nset, nset=RIGHT, instance=PLATE-1
1441, 1442, 1443, 1444, 1445, 1446, 1447, 1448, 1449, 1450, 1451, 1452
1453, 1454, 1455, 1456, 1457, 1458, 1459, 1460, 1461, 1462, 1463, 1464
1465, 1466, 1467, 1468, 1469, 1470, 1471, 1472, 1473, 1474, 1475, 1476
1477, 1478, 1479, 1480, 1481, 1482, 1483, 1484, 1485, 1486, 1487, 1488
1489, 1490, 1491, 1492, 1493, 1494, 1495, 1496, 1497, 1498, 1499, 1500
1501, 1502, 1503, 1504, 1505, 1506, 1507, 1508, 1509, 1510, 1511, 1512
1513, 1514, 1515, 1516, 1517, 1518, 1519, 1520, 1521, 1522, 1523, 1524
1525, 1526, 1527, 1528, 1529, 1530, 1531, 1532, 1533, 1534, 1535, 1536
1537, 1538, 1539, 1540, 1541, 1542, 1543, 1544, 1545, 1546, 1547, 1548
1549, 1550, 1551, 1552, 1553, 1554, 1555, 1556, 1557, 1558, 1559, 1560
1561, 1562, 1563, 1564, 1565, 1566, 1567, 1568, 1569, 1570, 1571, 1572
1573, 1574, 1575, 1576, 1577, 1578, 1579, 1580, 1581, 1582, 1583, 1584
*Nset, nset=ORIGIN, instance=PLATE-1
1
*Instance, name=EMBFIB-1, part=EMBFIB
*End Instance
*Embedded Element, host elset=PLATE-1.HOST
EMBFIB-1.EMBMESH_FIBERS
*End Assembly
*Material, name=MATRIX
*Density
1.2e-09,
*Elastic
3500, 0.35
*Material, name=FIBER
*Density
1.8e-09,
*Elastic
230000, 0.2
*Amplitude, name=RAMP, definition=SMOOTH STEP
0., 0., 1e-05, 1.
*Step, name=S1
*Dynamic, Explicit
, 1e-05
*Boundary
LEFT, 3, 3
ORIGIN, 1, 2
*Boundary, amplitude=RAMP
RIGHT, 3, 3, 0.001
*Output, history, frequency=1000000
*Node Output, nset=RIGHT
RF1, RF2, RF3, U1, U2, U3
*Output, field, number interval=5
*Node Output
U, RF
*Element Output, directions=YES
S, E
*Output, history, time interval=2e-07
*Energy Output
ALLIE, ALLKE, ALLWK, ALLVD, ALLAE, ETOTAL
*End Step