*Heading
*Preprint, echo=NO, model=YES, history=NO, contact=NO
** verification deck skewB_src.inp
*Part, name=PLATE
*Node
1, 0, 0, 0
2, 1, 0, 0
3, 2, 0, 0
4, 3, 0, 0
5, 0, 1, 0
6, 1, 1, 0
7, 2, 1, 0
8, 3, 1, 0
9, 0, 2, 0
10, 1, 2, 0
11, 2, 2, 0
12, 3, 2, 0
13, 0, 3, 0
14, 1, 3, 0
15, 2, 3, 0
16, 3, 3, 0
17, 0.2, 0, 1
18, 1.2, 0, 1
19, 2.2, 0, 1
20, 3.2, 0, 1
21, 0.2, 1, 1
22, 1.26488373768, 1.14299696835, 1.09924684849
23, 2.12797043647, 0.928059862568, 1.13447924034
24, 3.2, 1, 1
25, 0.2, 2, 1
26, 1.04328450851, 2.11564223062, 1.10694499435
27, 2.17250322709, 1.92909167365, 0.920233220356
28, 3.2, 2, 1
29, 0.2, 3, 1
30, 1.2, 3, 1
31, 2.2, 3, 1
32, 3.2, 3, 1
33, 0.4, 0, 2
34, 1.4, 0, 2
35, 2.4, 0, 2
36, 3.4, 0, 2
37, 0.4, 1, 2
38, 1.4, 1, 2
39, 2.4, 1, 2
40, 3.4, 1, 2
41, 0.4, 2, 2
42, 1.4, 2, 2
43, 2.4, 2, 2
44, 3.4, 2, 2
45, 0.4, 3, 2
46, 1.4, 3, 2
47, 2.4, 3, 2
48, 3.4, 3, 2
*Element, type=C3D8R, elset=HOST
1, 1, 2, 6, 5, 17, 18, 22, 21
2, 2, 3, 7, 6, 18, 19, 23, 22
3, 3, 4, 8, 7, 19, 20, 24, 23
4, 5, 6, 10, 9, 21, 22, 26, 25
5, 6, 7, 11, 10, 22, 23, 27, 26
6, 7, 8, 12, 11, 23, 24, 28, 27
7, 9, 10, 14, 13, 25, 26, 30, 29
8, 10, 11, 15, 14, 26, 27, 31, 30
9, 11, 12, 16, 15, 27, 28, 32, 31
10, 17, 18, 22, 21, 33, 34, 38, 37
11, 18, 19, 23, 22, 34, 35, 39, 38
12, 19, 20, 24, 23, 35, 36, 40, 39
13, 21, 22, 26, 25, 37, 38, 42, 41
14, 22, 23, 27, 26, 38, 39, 43, 42
15, 23, 24, 28, 27, 39, 40, 44, 43
16, 25, 26, 30, 29, 41, 42, 46, 45
17, 26, 27, 31, 30, 42, 43, 47, 46
18, 27, 28, 32, 31, 43, 44, 48, 47
*Solid Section, elset=HOST, material=MATRIX
,
*End Part
*Assembly, name=Assembly
*Instance, name=PLATE-1, part=PLATE
*End Instance
*Nset, nset=LEFT, instance=PLATE-1
1, 5, 9, 13, 17, 21, 25, 29, 33, 37, 41, 45
*Nset, nset=RIGHT, instance=PLATE-1
4, 8, 12, 16, 20, 24, 28, 32, 36, 40, 44, 48
*Nset, nset=ORIGIN, instance=PLATE-1
1
*End Assembly
