*Heading
*Preprint, echo=NO, model=YES, history=NO, contact=NO
*Part, name=P
*Node
1,0,0,0
2,1,0,0
3,1,1,0
4,0,1,0
5,0,0,1
6,1,0,1
7,1,1,1
8,0,1,1
*Element, type=C3D8R, elset=HOST
1,1,2,3,4,5,6,7,8
*Solid Section, elset=HOST, material=MATRIX
,
*End Part
*Assembly, name=A
*Instance, name=I, part=P
10,0,0
0,0,0,0,0,1,90
*End Instance
*Nset, nset=ALLN, instance=I
1,2,3,4,5,6,7,8
*End Assembly
*Material, name=MATRIX
*Density
1.2e-09,
*Elastic
3500, 0.35
*Step, name=S
*Dynamic, Explicit
, 1e-7
*Boundary
ALLN, 1, 3
*Output, history, frequency=1
*Node Output, nset=ALLN
U1, U2, U3
*End Step
