*Part, name=PLATE
*Node
1, 0.778836684617, 0, 1.84212198801
2, 0.856720353079, 0, 2.02633418681
3, 0.934604021541, 0, 2.21054638561
4, 1.42108015537, 0, 1.40731346615
5, 1.56318817091, 0, 1.54804481277
6, 1.70529618644, 0, 1.68877615938
7, 1.8496162184, 0, 0.760867823364
8, 2.03457784024, 0, 0.836954605701
9, 2.21953946208, 0, 0.913041388037
10, 2, 0, 1.22464679915e-16
11, 2.2, 0, 1.34711147906e-16
12, 2.4, 0, 1.46957615898e-16
13, 1.8496162184, 0, -0.760867823364
14, 2.03457784024, 0, -0.836954605701
15, 2.21953946208, 0, -0.913041388037
16, 1.42108015537, 0, -1.40731346615
17, 1.56318817091, 0, -1.54804481277
18, 1.70529618644, 0, -1.68877615938
19, 0.778836684617, 0, -1.84212198801
20, 0.856720353079, 0, -2.02633418681
21, 0.934604021541, 0, -2.21054638561
22, 0.674492354278, 0.389418342309, 1.84212198801
23, 0.741941589706, 0.42836017654, 2.02633418681
24, 0.809390825133, 0.46730201077, 2.21054638561
25, 1.23069151536, 0.710540077685, 1.40731346615
26, 1.3537606669, 0.781594085453, 1.54804481277
27, 1.47682981844, 0.852648093222, 1.68877615938
28, 1.60181463239, 0.9248081092, 0.760867823364
29, 1.76199609562, 1.01728892012, 0.836954605701
30, 1.92217755886, 1.10976973104, 0.913041388037
31, 1.73205080757, 1, 1.22464679915e-16
32, 1.90525588833, 1.1, 1.34711147906e-16
33, 2.07846096908, 1.2, 1.46957615898e-16
34, 1.60181463239, 0.9248081092, -0.760867823364
35, 1.76199609562, 1.01728892012, -0.836954605701
36, 1.92217755886, 1.10976973104, -0.913041388037
37, 1.23069151536, 0.710540077685, -1.40731346615
38, 1.3537606669, 0.781594085453, -1.54804481277
39, 1.47682981844, 0.852648093222, -1.68877615938
40, 0.674492354278, 0.389418342309, -1.84212198801
41, 0.741941589706, 0.42836017654, -2.02633418681
42, 0.809390825133, 0.46730201077, -2.21054638561
43, 0.389418342309, 0.674492354278, 1.84212198801
44, 0.42836017654, 0.741941589706, 2.02633418681
45, 0.46730201077, 0.809390825133, 2.21054638561
46, 0.710540077685, 1.23069151536, 1.40731346615
47, 0.781594085453, 1.3537606669, 1.54804481277
48, 0.852648093222, 1.47682981844, 1.68877615938
49, 0.9248081092, 1.60181463239, 0.760867823364
50, 1.01728892012, 1.76199609562, 0.836954605701
51, 1.10976973104, 1.92217755886, 0.913041388037
52, 1, 1.73205080757, 1.22464679915e-16
53, 1.1, 1.90525588833, 1.34711147906e-16
54, 1.2, 2.07846096908, 1.46957615898e-16
55, 0.9248081092, 1.60181463239, -0.760867823364
56, 1.01728892012, 1.76199609562, -0.836954605701
57, 1.10976973104, 1.92217755886, -0.913041388037
58, 0.710540077685, 1.23069151536, -1.40731346615
59, 0.781594085453, 1.3537606669, -1.54804481277
60, 0.852648093222, 1.47682981844, -1.68877615938
61, 0.389418342309, 0.674492354278, -1.84212198801
62, 0.42836017654, 0.741941589706, -2.02633418681
63, 0.46730201077, 0.809390825133, -2.21054638561
64, 4.76899926438e-17, 0.778836684617, 1.84212198801
65, 5.24589919081e-17, 0.856720353079, 2.02633418681
66, 5.72279911725e-17, 0.934604021541, 2.21054638561
67, 8.70160631802e-17, 1.42108015537, 1.40731346615
68, 9.57176694983e-17, 1.56318817091, 1.54804481277
69, 1.04419275816e-16, 1.70529618644, 1.68877615938
70, 1.13256329076e-16, 1.8496162184, 0.760867823364
71, 1.24581961983e-16, 2.03457784024, 0.836954605701
72, 1.35907594891e-16, 2.21953946208, 0.913041388037
73, 1.22464679915e-16, 2, 1.22464679915e-16
74, 1.34711147906e-16, 2.2, 1.34711147906e-16
75, 1.46957615898e-16, 2.4, 1.46957615898e-16
76, 1.13256329076e-16, 1.8496162184, -0.760867823364
77, 1.24581961983e-16, 2.03457784024, -0.836954605701
78, 1.35907594891e-16, 2.21953946208, -0.913041388037
79, 8.70160631802e-17, 1.42108015537, -1.40731346615
80, 9.57176694983e-17, 1.56318817091, -1.54804481277
81, 1.04419275816e-16, 1.70529618644, -1.68877615938
82, 4.76899926438e-17, 0.778836684617, -1.84212198801
83, 5.24589919081e-17, 0.856720353079, -2.02633418681
84, 5.72279911725e-17, 0.934604021541, -2.21054638561
85, -0.389418342309, 0.674492354278, 1.84212198801
86, -0.42836017654, 0.741941589706, 2.02633418681
87, -0.46730201077, 0.809390825133, 2.21054638561
88, -0.710540077685, 1.23069151536, 1.40731346615
89, -0.781594085453, 1.3537606669, 1.54804481277
90, -0.852648093222, 1.47682981844, 1.68877615938
91, -0.9248081092, 1.60181463239, 0.760867823364
92, -1.01728892012, 1.76199609562, 0.836954605701
93, -1.10976973104, 1.92217755886, 0.913041388037
94, -1, 1.73205080757, 1.22464679915e-16
95, -1.1, 1.90525588833, 1.34711147906e-16
96, -1.2, 2.07846096908, 1.46957615898e-16
97, -0.9248081092, 1.60181463239, -0.760867823364
98, -1.01728892012, 1.76199609562, -0.836954605701
99, -1.10976973104, 1.92217755886, -0.913041388037
100, -0.710540077685, 1.23069151536, -1.40731346615
101, -0.781594085453, 1.3537606669, -1.54804481277
102, -0.852648093222, 1.47682981844, -1.68877615938
103, -0.389418342309, 0.674492354278, -1.84212198801
104, -0.42836017654, 0.741941589706, -2.02633418681
105, -0.46730201077, 0.809390825133, -2.21054638561
106, -0.674492354278, 0.389418342309, 1.84212198801
107, -0.741941589706, 0.42836017654, 2.02633418681
108, -0.809390825133, 0.46730201077, 2.21054638561
109, -1.23069151536, 0.710540077685, 1.40731346615
110, -1.3537606669, 0.781594085453, 1.54804481277
111, -1.47682981844, 0.852648093222, 1.68877615938
112, -1.60181463239, 0.9248081092, 0.760867823364
113, -1.76199609562, 1.01728892012, 0.836954605701
114, -1.92217755886, 1.10976973104, 0.913041388037
115, -1.73205080757, 1, 1.22464679915e-16
116, -1.90525588833, 1.1, 1.34711147906e-16
117, -2.07846096908, 1.2, 1.46957615898e-16
118, -1.60181463239, 0.9248081092, -0.760867823364
119, -1.76199609562, 1.01728892012, -0.836954605701
120, -1.92217755886, 1.10976973104, -0.913041388037
121, -1.23069151536, 0.710540077685, -1.40731346615
122, -1.3537606669, 0.781594085453, -1.54804481277
123, -1.47682981844, 0.852648093222, -1.68877615938
124, -0.674492354278, 0.389418342309, -1.84212198801
125, -0.741941589706, 0.42836017654, -2.02633418681
126, -0.809390825133, 0.46730201077, -2.21054638561
127, -0.778836684617, 9.53799852875e-17, 1.84212198801
128, -0.856720353079, 1.04917983816e-16, 2.02633418681
129, -0.934604021541, 1.14455982345e-16, 2.21054638561
130, -1.42108015537, 1.7403212636e-16, 1.40731346615
131, -1.56318817091, 1.91435338997e-16, 1.54804481277
132, -1.70529618644, 2.08838551633e-16, 1.68877615938
133, -1.8496162184, 2.26512658151e-16, 0.760867823364
134, -2.03457784024, 2.49163923967e-16, 0.836954605701
135, -2.21953946208, 2.71815189782e-16, 0.913041388037
136, -2, 2.44929359829e-16, 1.22464679915e-16
137, -2.2, 2.69422295812e-16, 1.34711147906e-16
138, -2.4, 2.93915231795e-16, 1.46957615898e-16
139, -1.8496162184, 2.26512658151e-16, -0.760867823364
140, -2.03457784024, 2.49163923967e-16, -0.836954605701
141, -2.21953946208, 2.71815189782e-16, -0.913041388037
142, -1.42108015537, 1.7403212636e-16, -1.40731346615
143, -1.56318817091, 1.91435338997e-16, -1.54804481277
144, -1.70529618644, 2.08838551633e-16, -1.68877615938
145, -0.778836684617, 9.53799852875e-17, -1.84212198801
146, -0.856720353079, 1.04917983816e-16, -2.02633418681
147, -0.934604021541, 1.14455982345e-16, -2.21054638561
148, -0.674492354278, -0.389418342309, 1.84212198801
149, -0.741941589706, -0.42836017654, 2.02633418681
150, -0.809390825133, -0.46730201077, 2.21054638561
151, -1.23069151536, -0.710540077685, 1.40731346615
152, -1.3537606669, -0.781594085453, 1.54804481277
153, -1.47682981844, -0.852648093222, 1.68877615938
154, -1.60181463239, -0.9248081092, 0.760867823364
155, -1.76199609562, -1.01728892012, 0.836954605701
156, -1.92217755886, -1.10976973104, 0.913041388037
157, -1.73205080757, -1, 1.22464679915e-16
158, -1.90525588833, -1.1, 1.34711147906e-16
159, -2.07846096908, -1.2, 1.46957615898e-16
160, -1.60181463239, -0.9248081092, -0.760867823364
161, -1.76199609562, -1.01728892012, -0.836954605701
162, -1.92217755886, -1.10976973104, -0.913041388037
163, -1.23069151536, -0.710540077685, -1.40731346615
164, -1.3537606669, -0.781594085453, -1.54804481277
165, -1.47682981844, -0.852648093222, -1.68877615938
166, -0.674492354278, -0.389418342309, -1.84212198801
167, -0.741941589706, -0.42836017654, -2.02633418681
168, -0.809390825133, -0.46730201077, -2.21054638561
169, -0.389418342309, -0.674492354278, 1.84212198801
170, -0.42836017654, -0.741941589706, 2.02633418681
171, -0.46730201077, -0.809390825133, 2.21054638561
172, -0.710540077685, -1.23069151536, 1.40731346615
173, -0.781594085453, -1.3537606669, 1.54804481277
174, -0.852648093222, -1.47682981844, 1.68877615938
175, -0.9248081092, -1.60181463239, 0.760867823364
176, -1.01728892012, -1.76199609562, 0.836954605701
177, -1.10976973104, -1.92217755886, 0.913041388037
178, -1, -1.73205080757, 1.22464679915e-16
179, -1.1, -1.90525588833, 1.34711147906e-16
180, -1.2, -2.07846096908, 1.46957615898e-16
181, -0.9248081092, -1.60181463239, -0.760867823364
182, -1.01728892012, -1.76199609562, -0.836954605701
183, -1.10976973104, -1.92217755886, -0.913041388037
184, -0.710540077685, -1.23069151536, -1.40731346615
185, -0.781594085453, -1.3537606669, -1.54804481277
186, -0.852648093222, -1.47682981844, -1.68877615938
187, -0.389418342309, -0.674492354278, -1.84212198801
188, -0.42836017654, -0.741941589706, -2.02633418681
189, -0.46730201077, -0.809390825133, -2.21054638561
190, -1.43069977931e-16, -0.778836684617, 1.84212198801
191, -1.57376975724e-16, -0.856720353079, 2.02633418681
192, -1.71683973518e-16, -0.934604021541, 2.21054638561
193, -2.61048189541e-16, -1.42108015537, 1.40731346615
194, -2.87153008495e-16, -1.56318817091, 1.54804481277
195, -3.13257827449e-16, -1.70529618644, 1.68877615938
196, -3.39768987227e-16, -1.8496162184, 0.760867823364
197, -3.7374588595e-16, -2.03457784024, 0.836954605701
198, -4.07722784673e-16, -2.21953946208, 0.913041388037
199, -3.67394039744e-16, -2, 1.22464679915e-16
200, -4.04133443719e-16, -2.2, 1.34711147906e-16
201, -4.40872847693e-16, -2.4, 1.46957615898e-16
202, -3.39768987227e-16, -1.8496162184, -0.760867823364
203, -3.7374588595e-16, -2.03457784024, -0.836954605701
204, -4.07722784673e-16, -2.21953946208, -0.913041388037
205, -2.61048189541e-16, -1.42108015537, -1.40731346615
206, -2.87153008495e-16, -1.56318817091, -1.54804481277
207, -3.13257827449e-16, -1.70529618644, -1.68877615938
208, -1.43069977931e-16, -0.778836684617, -1.84212198801
209, -1.57376975724e-16, -0.856720353079, -2.02633418681
210, -1.71683973518e-16, -0.934604021541, -2.21054638561
211, 0.389418342309, -0.674492354278, 1.84212198801
212, 0.42836017654, -0.741941589706, 2.02633418681
213, 0.46730201077, -0.809390825133, 2.21054638561
214, 0.710540077685, -1.23069151536, 1.40731346615
215, 0.781594085453, -1.3537606669, 1.54804481277
216, 0.852648093222, -1.47682981844, 1.68877615938
217, 0.9248081092, -1.60181463239, 0.760867823364
218, 1.01728892012, -1.76199609562, 0.836954605701
219, 1.10976973104, -1.92217755886, 0.913041388037
220, 1, -1.73205080757, 1.22464679915e-16
221, 1.1, -1.90525588833, 1.34711147906e-16
222, 1.2, -2.07846096908, 1.46957615898e-16
223, 0.9248081092, -1.60181463239, -0.760867823364
224, 1.01728892012, -1.76199609562, -0.836954605701
225, 1.10976973104, -1.92217755886, -0.913041388037
226, 0.710540077685, -1.23069151536, -1.40731346615
227, 0.781594085453, -1.3537606669, -1.54804481277
228, 0.852648093222, -1.47682981844, -1.68877615938
229, 0.389418342309, -0.674492354278, -1.84212198801
230, 0.42836017654, -0.741941589706, -2.02633418681
231, 0.46730201077, -0.809390825133, -2.21054638561
232, 0.674492354278, -0.389418342309, 1.84212198801
233, 0.741941589706, -0.42836017654, 2.02633418681
234, 0.809390825133, -0.46730201077, 2.21054638561
235, 1.23069151536, -0.710540077685, 1.40731346615
236, 1.3537606669, -0.781594085453, 1.54804481277
237, 1.47682981844, -0.852648093222, 1.68877615938
238, 1.60181463239, -0.9248081092, 0.760867823364
239, 1.76199609562, -1.01728892012, 0.836954605701
240, 1.92217755886, -1.10976973104, 0.913041388037
241, 1.73205080757, -1, 1.22464679915e-16
242, 1.90525588833, -1.1, 1.34711147906e-16
243, 2.07846096908, -1.2, 1.46957615898e-16
244, 1.60181463239, -0.9248081092, -0.760867823364
245, 1.76199609562, -1.01728892012, -0.836954605701
246, 1.92217755886, -1.10976973104, -0.913041388037
247, 1.23069151536, -0.710540077685, -1.40731346615
248, 1.3537606669, -0.781594085453, -1.54804481277
249, 1.47682981844, -0.852648093222, -1.68877615938
250, 0.674492354278, -0.389418342309, -1.84212198801
251, 0.741941589706, -0.42836017654, -2.02633418681
252, 0.809390825133, -0.46730201077, -2.21054638561
*Element, type=C3D8R, elset=HOST
1, 1, 2, 5, 4, 22, 23, 26, 25
2, 2, 3, 6, 5, 23, 24, 27, 26
3, 4, 5, 8, 7, 25, 26, 29, 28
4, 5, 6, 9, 8, 26, 27, 30, 29
5, 7, 8, 11, 10, 28, 29, 32, 31
6, 8, 9, 12, 11, 29, 30, 33, 32
7, 10, 11, 14, 13, 31, 32, 35, 34
8, 11, 12, 15, 14, 32, 33, 36, 35
9, 13, 14, 17, 16, 34, 35, 38, 37
10, 14, 15, 18, 17, 35, 36, 39, 38
11, 16, 17, 20, 19, 37, 38, 41, 40
12, 17, 18, 21, 20, 38, 39, 42, 41
13, 22, 23, 26, 25, 43, 44, 47, 46
14, 23, 24, 27, 26, 44, 45, 48, 47
15, 25, 26, 29, 28, 46, 47, 50, 49
16, 26, 27, 30, 29, 47, 48, 51, 50
17, 28, 29, 32, 31, 49, 50, 53, 52
18, 29, 30, 33, 32, 50, 51, 54, 53
19, 31, 32, 35, 34, 52, 53, 56, 55
20, 32, 33, 36, 35, 53, 54, 57, 56
21, 34, 35, 38, 37, 55, 56, 59, 58
22, 35, 36, 39, 38, 56, 57, 60, 59
23, 37, 38, 41, 40, 58, 59, 62, 61
24, 38, 39, 42, 41, 59, 60, 63, 62
25, 43, 44, 47, 46, 64, 65, 68, 67
26, 44, 45, 48, 47, 65, 66, 69, 68
27, 46, 47, 50, 49, 67, 68, 71, 70
28, 47, 48, 51, 50, 68, 69, 72, 71
29, 49, 50, 53, 52, 70, 71, 74, 73
30, 50, 51, 54, 53, 71, 72, 75, 74
31, 52, 53, 56, 55, 73, 74, 77, 76
32, 53, 54, 57, 56, 74, 75, 78, 77
33, 55, 56, 59, 58, 76, 77, 80, 79
34, 56, 57, 60, 59, 77, 78, 81, 80
35, 58, 59, 62, 61, 79, 80, 83, 82
36, 59, 60, 63, 62, 80, 81, 84, 83
37, 64, 65, 68, 67, 85, 86, 89, 88
38, 65, 66, 69, 68, 86, 87, 90, 89
39, 67, 68, 71, 70, 88, 89, 92, 91
40, 68, 69, 72, 71, 89, 90, 93, 92
41, 70, 71, 74, 73, 91, 92, 95, 94
42, 71, 72, 75, 74, 92, 93, 96, 95
43, 73, 74, 77, 76, 94, 95, 98, 97
44, 74, 75, 78, 77, 95, 96, 99, 98
45, 76, 77, 80, 79, 97, 98, 101, 100
46, 77, 78, 81, 80, 98, 99, 102, 101
47, 79, 80, 83, 82, 100, 101, 104, 103
48, 80, 81, 84, 83, 101, 102, 105, 104
49, 85, 86, 89, 88, 106, 107, 110, 109
50, 86, 87, 90, 89, 107, 108, 111, 110
51, 88, 89, 92, 91, 109, 110, 113, 112
52, 89, 90, 93, 92, 110, 111, 114, 113
53, 91, 92, 95, 94, 112, 113, 116, 115
54, 92, 93, 96, 95, 113, 114, 117, 116
55, 94, 95, 98, 97, 115, 116, 119, 118
56, 95, 96, 99, 98, 116, 117, 120, 119
57, 97, 98, 101, 100, 118, 119, 122, 121
58, 98, 99, 102, 101, 119, 120, 123, 122
59, 100, 101, 104, 103, 121, 122, 125, 124
60, 101, 102, 105, 104, 122, 123, 126, 125
61, 106, 107, 110, 109, 127, 128, 131, 130
62, 107, 108, 111, 110, 128, 129, 132, 131
63, 109, 110, 113, 112, 130, 131, 134, 133
64, 110, 111, 114, 113, 131, 132, 135, 134
65, 112, 113, 116, 115, 133, 134, 137, 136
66, 113, 114, 117, 116, 134, 135, 138, 137
67, 115, 116, 119, 118, 136, 137, 140, 139
68, 116, 117, 120, 119, 137, 138, 141, 140
69, 118, 119, 122, 121, 139, 140, 143, 142
70, 119, 120, 123, 122, 140, 141, 144, 143
71, 121, 122, 125, 124, 142, 143, 146, 145
72, 122, 123, 126, 125, 143, 144, 147, 146
73, 127, 128, 131, 130, 148, 149, 152, 151
74, 128, 129, 132, 131, 149, 150, 153, 152
75, 130, 131, 134, 133, 151, 152, 155, 154
76, 131, 132, 135, 134, 152, 153, 156, 155
77, 133, 134, 137, 136, 154, 155, 158, 157
78, 134, 135, 138, 137, 155, 156, 159, 158
79, 136, 137, 140, 139, 157, 158, 161, 160
80, 137, 138, 141, 140, 158, 159, 162, 161
81, 139, 140, 143, 142, 160, 161, 164, 163
82, 140, 141, 144, 143, 161, 162, 165, 164
83, 142, 143, 146, 145, 163, 164, 167, 166
84, 143, 144, 147, 146, 164, 165, 168, 167
85, 148, 149, 152, 151, 169, 170, 173, 172
86, 149, 150, 153, 152, 170, 171, 174, 173
87, 151, 152, 155, 154, 172, 173, 176, 175
88, 152, 153, 156, 155, 173, 174, 177, 176
89, 154, 155, 158, 157, 175, 176, 179, 178
90, 155, 156, 159, 158, 176, 177, 180, 179
91, 157, 158, 161, 160, 178, 179, 182, 181
92, 158, 159, 162, 161, 179, 180, 183, 182
93, 160, 161, 164, 163, 181, 182, 185, 184
94, 161, 162, 165, 164, 182, 183, 186, 185
95, 163, 164, 167, 166, 184, 185, 188, 187
96, 164, 165, 168, 167, 185, 186, 189, 188
97, 169, 170, 173, 172, 190, 191, 194, 193
98, 170, 171, 174, 173, 191, 192, 195, 194
99, 172, 173, 176, 175, 193, 194, 197, 196
100, 173, 174, 177, 176, 194, 195, 198, 197
101, 175, 176, 179, 178, 196, 197, 200, 199
102, 176, 177, 180, 179, 197, 198, 201, 200
103, 178, 179, 182, 181, 199, 200, 203, 202
104, 179, 180, 183, 182, 200, 201, 204, 203
105, 181, 182, 185, 184, 202, 203, 206, 205
106, 182, 183, 186, 185, 203, 204, 207, 206
107, 184, 185, 188, 187, 205, 206, 209, 208
108, 185, 186, 189, 188, 206, 207, 210, 209
109, 190, 191, 194, 193, 211, 212, 215, 214
110, 191, 192, 195, 194, 212, 213, 216, 215
111, 193, 194, 197, 196, 214, 215, 218, 217
112, 194, 195, 198, 197, 215, 216, 219, 218
113, 196, 197, 200, 199, 217, 218, 221, 220
114, 197, 198, 201, 200, 218, 219, 222, 221
115, 199, 200, 203, 202, 220, 221, 224, 223
116, 200, 201, 204, 203, 221, 222, 225, 224
117, 202, 203, 206, 205, 223, 224, 227, 226
118, 203, 204, 207, 206, 224, 225, 228, 227
119, 205, 206, 209, 208, 226, 227, 230, 229
120, 206, 207, 210, 209, 227, 228, 231, 230
121, 211, 212, 215, 214, 232, 233, 236, 235
122, 212, 213, 216, 215, 233, 234, 237, 236
123, 214, 215, 218, 217, 235, 236, 239, 238
124, 215, 216, 219, 218, 236, 237, 240, 239
125, 217, 218, 221, 220, 238, 239, 242, 241
126, 218, 219, 222, 221, 239, 240, 243, 242
127, 220, 221, 224, 223, 241, 242, 245, 244
128, 221, 222, 225, 224, 242, 243, 246, 245
129, 223, 224, 227, 226, 244, 245, 248, 247
130, 224, 225, 228, 227, 245, 246, 249, 248
131, 226, 227, 230, 229, 247, 248, 251, 250
132, 227, 228, 231, 230, 248, 249, 252, 251
133, 232, 233, 236, 235, 1, 2, 5, 4
134, 233, 234, 237, 236, 2, 3, 6, 5
135, 235, 236, 239, 238, 4, 5, 8, 7
136, 236, 237, 240, 239, 5, 6, 9, 8
137, 238, 239, 242, 241, 7, 8, 11, 10
138, 239, 240, 243, 242, 8, 9, 12, 11
139, 241, 242, 245, 244, 10, 11, 14, 13
140, 242, 243, 246, 245, 11, 12, 15, 14
141, 244, 245, 248, 247, 13, 14, 17, 16
142, 245, 246, 249, 248, 14, 15, 18, 17
143, 247, 248, 251, 250, 16, 17, 20, 19
144, 248, 249, 252, 251, 17, 18, 21, 20
*Solid Section, elset=HOST, material=MATRIX
,
*End Part
*Part, name=EMBFIB
*Node, nset=EMBMESH_NODES
100000, 0.816823539033, 0.0395096439487, 1.9342280874
100001, 0.993934147858, 0.0480764601089, 1.84926568229
100002, 1.16233145475, 0.0562218150349, 1.74809173009
100003, 1.32053920841, 0.0638743026511, 1.63159317003
100004, 1.46717048404, 0.0709668375925, 1.5007912842
100005, 1.60093984175, 0.0774372433071, 1.35683274445
100006, 1.72067459543, 0.0832287971248, 1.20097956018
100007, 1.82532509296, 0.0882907275159, 1.03459801491
100008, 1.91397391805, 0.0925786591787, 0.859146688801
100009, 1.98584393272, 0.0960550020541, 0.676163672072
100010, 2.04030509007, 0.0986892808585, 0.487253081326
100011, 2.07687995755, 0.100458402244, 0.294070997119
100012, 2.09524790238, 0.101346857248, 0.0983109459575
100013, 2.09524790238, 0.101346857248, -0.0983109459575
100014, 2.07687995755, 0.100458402244, -0.294070997119
100015, 2.04030509007, 0.0986892808585, -0.487253081326
100016, 1.98584393272, 0.0960550020541, -0.676163672072
100017, 1.91397391805, 0.0925786591787, -0.859146688801
100018, 1.82532509296, 0.0882907275159, -1.03459801491
100019, 1.72067459543, 0.0832287971248, -1.20097956018
100020, 1.60093984175, 0.0774372433071, -1.35683274445
100021, 1.46717048404, 0.0709668375925, -1.5007912842
100022, 1.32053920841, 0.0638743026511, -1.63159317003
100023, 1.16233145475, 0.0562218150349, -1.74809173009
100024, 0.993934147858, 0.0480764601089, -1.84926568229
100025, 0.816823539033, 0.0395096439487, -1.9342280874
100026, 0.80919707773, 0.118160040946, 1.9342280874
100027, 0.98465405252, 0.143780503372, 1.84926568229
100028, 1.15147907913, 0.168140517166, 1.74809173009
100029, 1.30820968962, 0.191026530799, 1.63159317003
100030, 1.45347190853, 0.212237914536, 1.5007912842
100031, 1.5859922978, 0.231588719245, 1.35683274445
100032, 1.70460912034, 0.24890930652, 1.20097956018
100033, 1.80828252437, 0.264047835814, 1.03459801491
100034, 1.89610365927, 0.276871595539, 0.859146688801
100035, 1.96730264298, 0.287268166489, 0.676163672072
100036, 2.02125531117, 0.29514640735, 0.487253081326
100037, 2.05748868897, 0.300437253699, 0.294070997119
100038, 2.07568513725, 0.303094323444, 0.0983109459575
100039, 2.07568513725, 0.303094323444, -0.0983109459575
100040, 2.05748868897, 0.300437253699, -0.294070997119
100041, 2.02125531117, 0.29514640735, -0.487253081326
100042, 1.96730264298, 0.287268166489, -0.676163672072
100043, 1.89610365927, 0.276871595539, -0.859146688801
100044, 1.80828252437, 0.264047835814, -1.03459801491
100045, 1.70460912034, 0.24890930652, -1.20097956018
100046, 1.5859922978, 0.231588719245, -1.35683274445
100047, 1.45347190853, 0.212237914536, -1.5007912842
100048, 1.30820968962, 0.191026530799, -1.63159317003
100049, 1.15147907913, 0.168140517166, -1.74809173009
100050, 0.98465405252, 0.143780503372, -1.84926568229
100051, 0.80919707773, 0.118160040946, -1.9342280874
100052, 0.794015361339, 0.195707209477, 1.9342280874
100053, 0.966180507595, 0.238142106815, 1.84926568229
100054, 1.1298756536, 0.278489336591, 1.74809173009
100055, 1.28366576944, 0.316395195699, 1.63159317003
100056, 1.42620265744, 0.351527383256, 1.5007912842
100057, 1.55623677109, 0.383577913709, 1.35683274445
100058, 1.67262816918, 0.412265816786, 1.20097956018
100059, 1.77435650907, 0.437339600612, 1.03459801491
100060, 1.8605299915, 0.458579456411, 0.859146688801
100061, 1.93039317852, 0.475799185453, 0.676163672072
100062, 1.98333361604, 0.48884783136, 0.487253081326
100063, 2.01888720286, 0.497611003463, 0.294070997119
100064, 2.03674225925, 0.502011879607, 0.0983109459575
100065, 2.03674225925, 0.502011879607, -0.0983109459575
100066, 2.01888720286, 0.497611003463, -0.294070997119
100067, 1.98333361604, 0.48884783136, -0.487253081326
100068, 1.93039317852, 0.475799185453, -0.676163672072
100069, 1.8605299915, 0.458579456411, -0.859146688801
100070, 1.77435650907, 0.437339600612, -1.03459801491
100071, 1.67262816918, 0.412265816786, -1.20097956018
100072, 1.55623677109, 0.383577913709, -1.35683274445
100073, 1.42620265744, 0.351527383256, -1.5007912842
100074, 1.28366576944, 0.316395195699, -1.63159317003
100075, 1.1298756536, 0.278489336591, -1.74809173009
100076, 0.966180507595, 0.238142106815, -1.84926568229
100077, 0.794015361339, 0.195707209477, -1.9342280874
100078, 0.771420137455, 0.271427112524, 1.9342280874
100079, 0.938685995593, 0.33028024157, 1.84926568229
100080, 1.09772288352, 0.386237976115, 1.74809173009
100081, 1.24713660783, 0.438809763904, 1.63159317003
100082, 1.3856173364, 0.487534735512, 1.5007912842
100083, 1.51195108094, 0.531985744543, 1.35683274445
100084, 1.62503033946, 0.571773112199, 1.20097956018
100085, 1.72386380512, 0.606548043394, 1.03459801491
100086, 1.80758505649, 0.636005684456, 0.859146688801
100087, 1.87546015307, 0.65988779562, 0.676163672072
100088, 1.9268940693, 0.677985014881, 0.487253081326
100089, 1.9614359109, 0.690138693363, 0.294070997119
100090, 1.97878286755, 0.69624228611, 0.0983109459575
100091, 1.97878286755, 0.69624228611, -0.0983109459575
100092, 1.9614359109, 0.690138693363, -0.294070997119
100093, 1.9268940693, 0.677985014881, -0.487253081326
100094, 1.87546015307, 0.65988779562, -0.676163672072
100095, 1.80758505649, 0.636005684456, -0.859146688801
100096, 1.72386380512, 0.606548043394, -1.03459801491
100097, 1.62503033946, 0.571773112199, -1.20097956018
100098, 1.51195108094, 0.531985744543, -1.35683274445
100099, 1.3856173364, 0.487534735512, -1.5007912842
100100, 1.24713660783, 0.438809763904, -1.63159317003
100101, 1.09772288352, 0.386237976115, -1.74809173009
100102, 0.938685995593, 0.33028024157, -1.84926568229
100103, 0.771420137455, 0.271427112524, -1.9342280874
100104, 0.741622371595, 0.344612773754, 1.9342280874
100105, 0.902427225366, 0.4193346387, 1.84926568229
100106, 1.05532097064, 0.490380415722, 1.74809173009
100107, 1.19896326774, 0.557127283575, 1.63159317003
100108, 1.33209487963, 0.618990107302, 1.5007912842
100109, 1.45354871093, 0.675426567815, 1.35683274445
100110, 1.56226003931, 0.725941916119, 1.20097956018
100111, 1.65727584929, 0.770093310521, 1.03459801491
100112, 1.73776318684, 0.807493698788, 0.859146688801
100113, 1.80301646148, 0.837815211236, 0.676163672072
100114, 1.85246363182, 0.860792034991, 0.487253081326
100115, 1.88567122032, 0.87622274423, 0.294070997119
100116, 1.90234811337, 0.883972065979, 0.0983109459575
100117, 1.90234811337, 0.883972065979, -0.0983109459575
100118, 1.88567122032, 0.87622274423, -0.294070997119
100119, 1.85246363182, 0.860792034991, -0.487253081326
100120, 1.80301646148, 0.837815211236, -0.676163672072
100121, 1.73776318684, 0.807493698788, -0.859146688801
100122, 1.65727584929, 0.770093310521, -1.03459801491
100123, 1.56226003931, 0.725941916119, -1.20097956018
100124, 1.45354871093, 0.675426567815, -1.35683274445
100125, 1.33209487963, 0.618990107302, -1.5007912842
100126, 1.19896326774, 0.557127283575, -1.63159317003
100127, 1.05532097064, 0.490380415722, -1.74809173009
100128, 0.902427225366, 0.4193346387, -1.84926568229
100129, 0.741622371595, 0.344612773754, -1.9342280874
100130, 0.70490027747, 0.414580878365, 1.9342280874
100131, 0.857742735281, 0.504473821291, 1.84926568229
100132, 1.00306581019, 0.589944305514, 1.74809173009
100133, 1.13959553066, 0.670243055908, 1.63159317003
100134, 1.26613501187, 0.744666135238, 1.5007912842
100135, 1.38157494825, 0.812561115207, 1.35683274445
100136, 1.4849033381, 0.873332795963, 1.20097956018
100137, 1.57521435538, 0.926448423897, 1.03459801491
100138, 1.65171629052, 0.971442362021, 0.859146688801
100139, 1.71373849099, 1.00792017196, 0.676163672072
100140, 1.76073724053, 1.0355620718, 0.487253081326
100141, 1.79230052562, 1.05412573942, 0.294070997119
100142, 1.80815164742, 1.06344843684, 0.0983109459575
100143, 1.80815164742, 1.06344843684, -0.0983109459575
100144, 1.79230052562, 1.05412573942, -0.294070997119
100145, 1.76073724053, 1.0355620718, -0.487253081326
100146, 1.71373849099, 1.00792017196, -0.676163672072
100147, 1.65171629052, 0.971442362021, -0.859146688801
100148, 1.57521435538, 0.926448423897, -1.03459801491
100149, 1.4849033381, 0.873332795963, -1.20097956018
100150, 1.38157494825, 0.812561115207, -1.35683274445
100151, 1.26613501187, 0.744666135238, -1.5007912842
100152, 1.13959553066, 0.670243055908, -1.63159317003
100153, 1.00306581019, 0.589944305514, -1.74809173009
100154, 0.857742735281, 0.504473821291, -1.84926568229
100155, 0.70490027747, 0.414580878365, -1.9342280874
100156, 0.66159671938, 0.480678153018, 1.9342280874
100157, 0.805049732383, 0.584902867735, 1.84926568229
100158, 0.941445294544, 0.684000044277, 1.74809173009
100159, 1.06958769716, 0.777100949416, 1.63159317003
100160, 1.18835358266, 0.863389416108, 1.5007912842
100161, 1.29670179251, 0.9421089984, 1.35683274445
100162, 1.39368249451, 1.0125696028, 1.20097956018
100163, 1.47844550946, 1.07415353796, 1.03459801491
100164, 1.55024776423, 1.12632092966, 0.859146688801
100165, 1.60845980595, 1.16861445361, 0.676163672072
100166, 1.65257132002, 1.20066334456, 0.487253081326
100167, 1.68219560382, 1.2221866466, 0.294070997119
100168, 1.69707295671, 1.23299567618, 0.0983109459575
100169, 1.69707295671, 1.23299567618, -0.0983109459575
100170, 1.68219560382, 1.2221866466, -0.294070997119
100171, 1.65257132002, 1.20066334456, -0.487253081326
100172, 1.60845980595, 1.16861445361, -0.676163672072
100173, 1.55024776423, 1.12632092966, -0.859146688801
100174, 1.47844550946, 1.07415353796, -1.03459801491
100175, 1.39368249451, 1.0125696028, -1.20097956018
100176, 1.29670179251, 0.9421089984, -1.35683274445
100177, 1.18835358266, 0.863389416108, -1.5007912842
100178, 1.06958769716, 0.777100949416, -1.63159317003
100179, 0.941445294544, 0.684000044277, -1.74809173009
100180, 0.805049732383, 0.584902867735, -1.84926568229
100181, 0.66159671938, 0.480678153018, -1.9342280874
100182, 0.612116010979, 0.542287465268, 1.9342280874
100183, 0.744840197042, 0.659870833697, 1.84926568229
100184, 0.871034757837, 0.77166945892, 1.74809173009
100185, 0.989593411511, 0.876703260738, 1.63159317003
100186, 1.09947681622, 0.974051462628, 1.5007912842
100187, 1.19972168152, 1.06286066371, 1.35683274445
100188, 1.28944921297, 1.14235232007, 1.20097956018
100189, 1.36787281615, 1.21182956985, 1.03459801491
100190, 1.43430499226, 1.27068334225, 0.859146688801
100191, 1.48816336508, 1.31839769697, 0.676163672072
100192, 1.52897578636, 1.35455434717, 0.487253081326
100193, 1.55638447491, 1.37883632636, 0.294070997119
100194, 1.57014915306, 1.3910307671, 0.0983109459575
100195, 1.57014915306, 1.3910307671, -0.0983109459575
100196, 1.55638447491, 1.37883632636, -0.294070997119
100197, 1.52897578636, 1.35455434717, -0.487253081326
100198, 1.48816336508, 1.31839769697, -0.676163672072
100199, 1.43430499226, 1.27068334225, -0.859146688801
100200, 1.36787281615, 1.21182956985, -1.03459801491
100201, 1.28944921297, 1.14235232007, -1.20097956018
100202, 1.19972168152, 1.06286066371, -1.35683274445
100203, 1.09947681622, 0.974051462628, -1.5007912842
100204, 0.989593411511, 0.876703260738, -1.63159317003
100205, 0.871034757837, 0.77166945892, -1.74809173009
100206, 0.744840197042, 0.659870833697, -1.84926568229
100207, 0.612116010979, 0.542287465268, -1.9342280874
100208, 0.556920140308, 0.598833585567, 1.9342280874
100209, 0.677676289468, 0.728677763478, 1.84926568229
100210, 0.792491604283, 0.85213400374, 1.74809173009
100211, 0.900359558813, 0.968120029928, 1.63159317003
100212, 1.000334531, 1.07561905308, 1.5007912842
100213, 1.09154009243, 1.17368868538, 1.35683274445
100214, 1.17317669156, 1.26146920153, 1.20097956018
100215, 1.24452866292, 1.33819107556, 1.03459801491
100216, 1.30497050103, 1.40318172684, 0.859146688801
100217, 1.35397234383, 1.45587141626, 0.676163672072
100218, 1.39110461775, 1.49579824081, 0.487253081326
100219, 1.41604180351, 1.52261218285, 0.294070997119
100220, 1.42856528982, 1.53607817855, 0.0983109459575
100221, 1.42856528982, 1.53607817855, -0.0983109459575
100222, 1.41604180351, 1.52261218285, -0.294070997119
100223, 1.39110461775, 1.49579824081, -0.487253081326
100224, 1.35397234383, 1.45587141626, -0.676163672072
100225, 1.30497050103, 1.40318172684, -0.859146688801
100226, 1.24452866292, 1.33819107556, -1.03459801491
100227, 1.17317669156, 1.26146920153, -1.20097956018
100228, 1.09154009243, 1.17368868538, -1.35683274445
100229, 1.000334531, 1.07561905308, -1.5007912842
100230, 0.900359558813, 0.968120029928, -1.63159317003
100231, 0.792491604283, 0.85213400374, -1.74809173009
100232, 0.677676289468, 0.728677763478, -1.84926568229
100233, 0.556920140308, 0.598833585567, -1.9342280874
100234, 0.496524456342, 0.649788558023, 1.9342280874
100235, 0.604185100969, 0.790681225312, 1.84926568229
100236, 0.706549170146, 0.924642402962, 1.74809173009
100237, 0.802719291502, 1.05049772325, 1.63159317003
100238, 0.891852391777, 1.16714387825, 1.5007912842
100239, 0.973167087599, 1.27355829202, 1.35683274445
100240, 1.04595053547, 1.36880808493, 1.20097956018
100241, 1.10956468089, 1.45205825175, 1.03459801491
100242, 1.16345185184, 1.52257898172, 0.859146688801
100243, 1.20713964762, 1.5797520564, 0.676163672072
100244, 1.24024508013, 1.62307626929, 0.487253081326
100245, 1.26247793131, 1.65217181963, 0.294070997119
100246, 1.27364329738, 1.66678364191, 0.0983109459575
100247, 1.27364329738, 1.66678364191, -0.0983109459575
100248, 1.26247793131, 1.65217181963, -0.294070997119
100249, 1.24024508013, 1.62307626929, -0.487253081326
100250, 1.20713964762, 1.5797520564, -0.676163672072
100251, 1.16345185184, 1.52257898172, -0.859146688801
100252, 1.10956468089, 1.45205825175, -1.03459801491
100253, 1.04595053547, 1.36880808493, -1.20097956018
100254, 0.973167087599, 1.27355829202, -1.35683274445
100255, 0.891852391777, 1.16714387825, -1.5007912842
100256, 0.802719291502, 1.05049772325, -1.63159317003
100257, 0.706549170146, 0.924642402962, -1.74809173009
100258, 0.604185100969, 0.790681225312, -1.84926568229
100259, 0.496524456342, 0.649788558023, -1.9342280874
100260, 0.431492857308, 0.69467662979, 1.9342280874
100261, 0.525052798971, 0.845302309583, 1.84926568229
100262, 0.614009876776, 0.9885176652, 1.74809173009
100263, 0.697584250448, 1.12306720236, 1.63159317003
100264, 0.775043267073, 1.2477713955, 1.5007912842
100265, 0.845707883877, 1.36153702804, 1.35683274445
100266, 0.908958621046, 1.46336677605, 1.20097956018
100267, 0.964240992378, 1.55236795128, 1.03459801491
100268, 1.01107036618, 1.62776032687, 0.859146688801
100269, 1.04903621376, 1.68888297723, 0.676163672072
100270, 1.07780570836, 1.73520007196, 0.487253081326
100271, 1.09712664283, 1.76630557329, 0.294070997119
100272, 1.10682964063, 1.7819267955, 0.0983109459575
100273, 1.10682964063, 1.7819267955, -0.0983109459575
100274, 1.09712664283, 1.76630557329, -0.294070997119
100275, 1.07780570836, 1.73520007196, -0.487253081326
100276, 1.04903621376, 1.68888297723, -0.676163672072
100277, 1.01107036618, 1.62776032687, -0.859146688801
100278, 0.964240992378, 1.55236795128, -1.03459801491
100279, 0.908958621046, 1.46336677605, -1.20097956018
100280, 0.845707883877, 1.36153702804, -1.35683274445
100281, 0.775043267073, 1.2477713955, -1.5007912842
100282, 0.697584250448, 1.12306720236, -1.63159317003
100283, 0.614009876776, 0.9885176652, -1.74809173009
100284, 0.525052798971, 0.845302309583, -1.84926568229
100285, 0.431492857308, 0.69467662979, -1.9342280874
100286, 0.362432525725, 0.733078693034, 1.9342280874
100287, 0.441018220457, 0.892031033944, 1.84926568229
100288, 0.515737738623, 1.04316340434, 1.74809173009
100289, 0.585936053202, 1.1851509056, 1.63159317003
100290, 0.650997772208, 1.31674880742, 1.5007912842
100291, 0.710352533507, 1.43680345967, 1.35683274445
100292, 0.763480004884, 1.54426240586, 1.20097956018
100293, 0.809914445525, 1.63818360951, 1.03459801491
100294, 0.849248788925, 1.71774371244, 0.859146688801
100295, 0.881138211423, 1.78224525274, 0.676163672072
100296, 0.905303155095, 1.83112277909, 0.487253081326
100297, 0.921531778493, 1.86394780771, 0.294070997119
100298, 0.929681813744, 1.88043257871, 0.0983109459575
100299, 0.929681813744, 1.88043257871, -0.0983109459575
100300, 0.921531778493, 1.86394780771, -0.294070997119
100301, 0.905303155095, 1.83112277909, -0.487253081326
100302, 0.881138211423, 1.78224525274, -0.676163672072
100303, 0.849248788925, 1.71774371244, -0.859146688801
100304, 0.809914445525, 1.63818360951, -1.03459801491
100305, 0.763480004884, 1.54426240586, -1.20097956018
100306, 0.710352533507, 1.43680345967, -1.35683274445
100307, 0.650997772208, 1.31674880742, -1.5007912842
100308, 0.585936053202, 1.1851509056, -1.63159317003
100309, 0.515737738623, 1.04316340434, -1.74809173009
100310, 0.441018220457, 0.892031033944, -1.84926568229
100311, 0.362432525725, 0.733078693034, -1.9342280874
100312, 0.289988259301, 0.764636198039, 1.9342280874
100313, 0.352865973645, 0.930431104885, 1.84926568229
100314, 0.412650296162, 1.08806940784, 1.74809173009
100315, 0.468817128898, 1.23616917416, 1.63159317003
100316, 0.520874086545, 1.3734320905, 1.5007912842
100317, 0.568364812925, 1.49865484452, 1.35683274445
100318, 0.610872981625, 1.61073967367, 1.20097956018
100319, 0.648025945715, 1.70870398876, 1.03459801491
100320, 0.679498004549, 1.79168898778, 0.859146688801
100321, 0.705013259014, 1.85896718453, 0.676163672072
100322, 0.72434803019, 1.90994878619, 0.487253081326
100323, 0.737332820229, 1.94418686367, 0.294070997119
100324, 0.743853798255, 1.96138126959, 0.0983109459575
100325, 0.743853798255, 1.96138126959, -0.0983109459575
100326, 0.737332820229, 1.94418686367, -0.294070997119
100327, 0.72434803019, 1.90994878619, -0.487253081326
100328, 0.705013259014, 1.85896718453, -0.676163672072
100329, 0.679498004549, 1.79168898778, -0.859146688801
100330, 0.648025945715, 1.70870398876, -1.03459801491
100331, 0.610872981625, 1.61073967367, -1.20097956018
100332, 0.568364812925, 1.49865484452, -1.35683274445
100333, 0.520874086545, 1.3734320905, -1.5007912842
100334, 0.468817128898, 1.23616917416, -1.63159317003
100335, 0.412650296162, 1.08806940784, -1.74809173009
100336, 0.352865973645, 0.930431104885, -1.84926568229
100337, 0.289988259301, 0.764636198039, -1.9342280874
100338, 0.214836450633, 0.789054500883, 1.9342280874
100339, 0.261419112311, 0.960143991291, 1.84926568229
100340, 0.305710049068, 1.12281640044, 1.74809173009
100341, 0.347320985378, 1.27564566421, 1.63159317003
100342, 0.385887139879, 1.41729200821, 1.5007912842
100343, 0.421070423223, 1.54651369288, 1.35683274445
100344, 0.452562401927, 1.66217789914, 1.20097956018
100345, 0.48008700225, 1.76327065926, 1.03459801491
100346, 0.503402930386, 1.84890574578, 0.859146688801
100347, 0.522305787761, 1.91833244059, 0.676163672072
100348, 0.536629862892, 1.97094211609, 0.487253081326
100349, 0.546249584087, 2.00627357071, 0.294070997119
100350, 0.551080620271, 2.02401707203, 0.0983109459575
100351, 0.551080620271, 2.02401707203, -0.0983109459575
100352, 0.546249584087, 2.00627357071, -0.294070997119
100353, 0.536629862892, 1.97094211609, -0.487253081326
100354, 0.522305787761, 1.91833244059, -0.676163672072
100355, 0.503402930386, 1.84890574578, -0.859146688801
100356, 0.48008700225, 1.76327065926, -1.03459801491
100357, 0.452562401927, 1.66217789914, -1.20097956018
100358, 0.421070423223, 1.54651369288, -1.35683274445
100359, 0.385887139879, 1.41729200821, -1.5007912842
100360, 0.347320985378, 1.27564566421, -1.63159317003
100361, 0.305710049068, 1.12281640044, -1.74809173009
100362, 0.261419112311, 0.960143991291, -1.84926568229
100363, 0.214836450633, 0.789054500883, -1.9342280874
100364, 0.13767877191, 0.806105614451, 1.9342280874
100365, 0.167531451161, 0.980892271947, 1.84926568229
100366, 0.195915469615, 1.14707995883, 1.74809173009
100367, 0.222581999398, 1.30321179439, 1.63159317003
100368, 0.247297268959, 1.4479190523, 1.5007912842
100369, 0.26984461243, 1.57993315957, 1.35683274445
100370, 0.290026369019, 1.69809681741, 1.20097956018
100371, 0.307665615797, 1.8013741467, 1.03459801491
100372, 0.322607718696, 1.888859769, 0.859146688801
100373, 0.334721688096, 1.95978674352, 0.676163672072
100374, 0.343901327152, 2.01353329049, 0.487253081326
100375, 0.350066162757, 2.04962824198, 0.294070997119
100376, 0.353162151016, 2.0677551724, 0.0983109459575
100377, 0.353162151016, 2.0677551724, -0.0983109459575
100378, 0.350066162757, 2.04962824198, -0.294070997119
100379, 0.343901327152, 2.01353329049, -0.487253081326
100380, 0.334721688096, 1.95978674352, -0.676163672072
100381, 0.322607718696, 1.888859769, -0.859146688801
100382, 0.307665615797, 1.8013741467, -1.03459801491
100383, 0.290026369019, 1.69809681741, -1.20097956018
100384, 0.26984461243, 1.57993315957, -1.35683274445
100385, 0.247297268959, 1.4479190523, -1.5007912842
100386, 0.222581999398, 1.30321179439, -1.63159317003
100387, 0.195915469615, 1.14707995883, -1.74809173009
100388, 0.167531451161, 0.980892271947, -1.84926568229
100389, 0.13767877191, 0.806105614451, -1.9342280874
100390, 0.0592356235891, 0.81563033709, 1.9342280874
100391, 0.0720795939898, 0.992482225747, 1.84926568229
100392, 0.084291680209, 1.16063354072, 1.74809173009
100393, 0.0957648252605, 1.31861018718, 1.63159317003
100394, 0.106398450069, 1.46502726633, 1.5007912842
100395, 0.116099335197, 1.59860121604, 1.35683274445
100396, 0.124782438046, 1.71816106322, 1.20097956018
100397, 0.132371638386, 1.82265868908, 1.03459801491
100398, 0.138800405658, 1.91117801748, 0.859146688801
100399, 0.144012382215, 1.98294304566, 0.676163672072
100400, 0.147961877378, 2.03732464707, 0.487253081326
100401, 0.150614267986, 2.0738460866, 0.294070997119
100402, 0.151946301912, 2.09218719985, 0.0983109459575
100403, 0.151946301912, 2.09218719985, -0.0983109459575
100404, 0.150614267986, 2.0738460866, -0.294070997119
100405, 0.147961877378, 2.03732464707, -0.487253081326
100406, 0.144012382215, 1.98294304566, -0.676163672072
100407, 0.138800405658, 1.91117801748, -0.859146688801
100408, 0.132371638386, 1.82265868908, -1.03459801491
100409, 0.124782438046, 1.71816106322, -1.20097956018
100410, 0.116099335197, 1.59860121604, -1.35683274445
100411, 0.106398450069, 1.46502726633, -1.5007912842
100412, 0.0957648252605, 1.31861018718, -1.63159317003
100413, 0.084291680209, 1.16063354072, -1.74809173009
100414, 0.0720795939898, 0.992482225747, -1.84926568229
100415, 0.0592356235891, 0.81563033709, -1.9342280874
100416, -0.0197605917889, 0.817539739032, 1.9342280874
100417, -0.0240452509292, 0.994805640415, 1.84926568229
100418, -0.0281191179039, 1.16335059995, 1.74809173009
100419, -0.0319464792477, 1.32169707193, 1.63159317003
100420, -0.035493782481, 1.4684569155, 1.5007912842
100421, -0.0387299302478, 1.60234356368, 1.35683274445
100422, -0.0416265529297, 1.72218330212, 1.20097956018
100423, -0.0441582573473, 1.82692555838, 1.03459801491
100424, -0.0463028493694, 1.91565211175, 0.859146688801
100425, -0.0480415284769, 1.98758514285, 0.676163672072
100426, -0.0493590525776, 2.04209405235, 0.487253081326
100427, -0.0502438716253, 2.07870098908, 0.294070997119
100428, -0.0506882288732, 2.09708503913, 0.0983109459575
100429, -0.0506882288732, 2.09708503913, -0.0983109459575
100430, -0.0502438716253, 2.07870098908, -0.294070997119
100431, -0.0493590525776, 2.04209405235, -0.487253081326
100432, -0.0480415284769, 1.98758514285, -0.676163672072
100433, -0.0463028493694, 1.91565211175, -0.859146688801
100434, -0.0441582573473, 1.82692555838, -1.03459801491
100435, -0.0416265529297, 1.72218330212, -1.20097956018
100436, -0.0387299302478, 1.60234356368, -1.35683274445
100437, -0.035493782481, 1.4684569155, -1.5007912842
100438, -0.0319464792477, 1.32169707193, -1.63159317003
100439, -0.0281191179039, 1.16335059995, -1.74809173009
100440, -0.0240452509292, 0.994805640415, -1.84926568229
100441, -0.0197605917889, 0.817539739032, -1.9342280874
100442, -0.0985723078456, 0.811815992704, 1.9342280874
100443, -0.119945591819, 0.987840822854, 1.84926568229
100444, -0.140267375389, 1.15520576807, 1.74809173009
100445, -0.159359508087, 1.31244362724, 1.63159317003
100446, -0.177054619148, 1.4581759781, 1.5007912842
100447, -0.193197584769, 1.59112526119, 1.35683274445
100448, -0.207646887996, 1.71012597955, 1.20097956018
100449, -0.22027585933, 1.81413491597, 1.03459801491
100450, -0.230973787168, 1.90224027839, 0.859146688801
100451, -0.239646888362, 1.9736696931, 0.676163672072
100452, -0.246219130359, 2.02779697568, 0.487253081326
100453, -0.250632897744, 2.0641476205, 0.294070997119
100454, -0.252849497323, 2.08240296043, 0.0983109459575
100455, -0.252849497323, 2.08240296043, -0.0983109459575
100456, -0.250632897744, 2.0641476205, -0.294070997119
100457, -0.246219130359, 2.02779697568, -0.487253081326
100458, -0.239646888362, 1.9736696931, -0.676163672072
100459, -0.230973787168, 1.90224027839, -0.859146688801
100460, -0.22027585933, 1.81413491597, -1.03459801491
100461, -0.207646887996, 1.71012597955, -1.20097956018
100462, -0.193197584769, 1.59112526119, -1.35683274445
100463, -0.177054619148, 1.4581759781, -1.5007912842
100464, -0.159359508087, 1.31244362724, -1.63159317003
100465, -0.140267375389, 1.15520576807, -1.74809173009
100466, -0.119945591819, 0.987840822854, -1.84926568229
100467, -0.0985723078456, 0.811815992704, -1.9342280874
100468, -0.176463680823, 0.798512539184, 1.9342280874
100469, -0.214726033035, 0.97165280169, 1.84926568229
100470, -0.251105994184, 1.1362750912, 1.74809173009
100471, -0.285284640136, 1.29093625001, 1.63159317003
100472, -0.31696234454, 1.43428044448, 1.5007912842
100473, -0.345861405496, 1.56505105085, 1.35683274445
100474, -0.371728480017, 1.68210167147, 1.20097956018
100475, -0.394336804963, 1.78440618464, 1.03459801491
100476, -0.413488184948, 1.87106774009, 0.859146688801
100477, -0.429014729819, 1.94132662119, 0.676163672072
100478, -0.44078032646, 1.994566905, 0.487253081326
100479, -0.448681832026, 2.03032186174, 0.294070997119
100480, -0.452649978143, 2.04827804635, 0.0983109459575
100481, -0.452649978143, 2.04827804635, -0.0983109459575
100482, -0.448681832026, 2.03032186174, -0.294070997119
100483, -0.44078032646, 1.994566905, -0.487253081326
100484, -0.429014729819, 1.94132662119, -0.676163672072
100485, -0.413488184948, 1.87106774009, -0.859146688801
100486, -0.394336804963, 1.78440618464, -1.03459801491
100487, -0.371728480017, 1.68210167147, -1.20097956018
100488, -0.345861405496, 1.56505105085, -1.35683274445
100489, -0.31696234454, 1.43428044448, -1.5007912842
100490, -0.285284640136, 1.29093625001, -1.63159317003
100491, -0.251105994184, 1.1362750912, -1.74809173009
100492, -0.214726033035, 0.97165280169, -1.84926568229
100493, -0.176463680823, 0.798512539184, -1.9342280874
100494, -0.252707459958, 0.777753589233, 1.9342280874
100495, -0.307501635136, 0.946392720113, 1.84926568229
100496, -0.359600103967, 1.10673531995, 1.74809173009
100497, -0.408546146365, 1.25737574885, 1.63159317003
100498, -0.453910677922, 1.39699342079, 1.5007912842
100499, -0.495296011466, 1.52436438052, 1.35683274445
100500, -0.532339343377, 1.6383720333, 1.20097956018
100501, -0.564715934097, 1.73801693355, 1.03459801491
100502, -0.592141954954, 1.82242554643, 0.859146688801
100503, -0.614376976336, 1.89085790569, 0.676163672072
100504, -0.631226075415, 1.94271410054, 0.487253081326
100505, -0.642541544934, 1.97753953479, 0.294070997119
100506, -0.648224188076, 1.99502891204, 0.0983109459575
100507, -0.648224188076, 1.99502891204, -0.0983109459575
100508, -0.642541544934, 1.97753953479, -0.294070997119
100509, -0.631226075415, 1.94271410054, -0.487253081326
100510, -0.614376976336, 1.89085790569, -0.676163672072
100511, -0.592141954954, 1.82242554643, -0.859146688801
100512, -0.564715934097, 1.73801693355, -1.03459801491
100513, -0.532339343377, 1.6383720333, -1.20097956018
100514, -0.495296011466, 1.52436438052, -1.35683274445
100515, -0.453910677922, 1.39699342079, -1.5007912842
100516, -0.408546146365, 1.25737574885, -1.63159317003
100517, -0.359600103967, 1.10673531995, -1.74809173009
100518, -0.307501635136, 0.946392720113, -1.84926568229
100519, -0.252707459958, 0.777753589233, -1.9342280874
100520, -0.326591777627, 0.749732963574, 1.9342280874
100521, -0.397406177321, 0.9122964247, 1.84926568229
100522, -0.464736724469, 1.06686225921, 1.74809173009
100523, -0.527993167303, 1.21207546909, 1.63159317003
100524, -0.586620969604, 1.34666304593, 1.5007912842
100525, -0.640106172028, 1.46944513069, 1.35683274445
100526, -0.687979897719, 1.5793453569, 1.20097956018
100527, -0.729822462709, 1.67540028664, 1.03459801491
100528, -0.76526705507, 1.75676785647, 0.859146688801
100529, -0.794002950559, 1.82273475938, 0.676163672072
100530, -0.815778236578, 1.87272269796, 0.487253081326
100531, -0.830402020559, 1.90629345403, 0.294070997119
100532, -0.83774610342, 1.92315273031, 0.0983109459575
100533, -0.83774610342, 1.92315273031, -0.0983109459575
100534, -0.830402020559, 1.90629345403, -0.294070997119
100535, -0.815778236578, 1.87272269796, -0.487253081326
100536, -0.794002950559, 1.82273475938, -0.676163672072
100537, -0.76526705507, 1.75676785647, -0.859146688801
100538, -0.729822462709, 1.67540028664, -1.03459801491
100539, -0.687979897719, 1.5793453569, -1.20097956018
100540, -0.640106172028, 1.46944513069, -1.35683274445
100541, -0.586620969604, 1.34666304593, -1.5007912842
100542, -0.527993167303, 1.21207546909, -1.63159317003
100543, -0.464736724469, 1.06686225921, -1.74809173009
100544, -0.397406177321, 0.9122964247, -1.84926568229
100545, -0.326591777627, 0.749732963574, -1.9342280874
100546, -0.397426795865, 0.714712283239, 1.9342280874
100547, -0.483600245104, 0.869682263375, 1.84926568229
100548, -0.565534223391, 1.017028193, 1.74809173009
100549, -0.642510458298, 1.15545836726, 1.63159317003
100550, -0.71385413935, 1.28375924106, 1.5007912842
100551, -0.778939833729, 1.40080606759, 1.35683274445
100552, -0.837196969121, 1.50557275842, 1.20097956018
100553, -0.888114835627, 1.59714087866, 1.03459801491
100554, -0.931247062883, 1.67470769837, 0.859146688801
100555, -0.966215533166, 1.73759322974, 0.676163672072
100556, -0.992713696146, 1.78524618812, 0.487253081326
100557, -1.01050925626, 1.81724882491, 0.294070997119
100558, -1.01944620912, 1.8333205897, 0.0983109459575
100559, -1.01944620912, 1.8333205897, -0.0983109459575
100560, -1.01050925626, 1.81724882491, -0.294070997119
100561, -0.992713696146, 1.78524618812, -0.487253081326
100562, -0.966215533166, 1.73759322974, -0.676163672072
100563, -0.931247062883, 1.67470769837, -0.859146688801
100564, -0.888114835627, 1.59714087866, -1.03459801491
100565, -0.837196969121, 1.50557275842, -1.20097956018
100566, -0.778939833729, 1.40080606759, -1.35683274445
100567, -0.71385413935, 1.28375924106, -1.5007912842
100568, -0.642510458298, 1.15545836726, -1.63159317003
100569, -0.565534223391, 1.017028193, -1.74809173009
100570, -0.483600245104, 0.869682263375, -1.84926568229
100571, -0.397426795865, 0.714712283239, -1.9342280874
100572, -0.46455114719, 0.673018526884, 1.9342280874
100573, -0.565279067698, 0.81894811308, 1.84926568229
100574, -0.661051481644, 0.957698408585, 1.74809173009
100575, -0.751028802259, 1.08805306197, 1.63159317003
100576, -0.834422245333, 1.20886932203, 1.5007912842
100577, -0.910500744076, 1.31908805567, 1.35683274445
100578, -0.978597357994, 1.41774303276, 1.20097956018
100579, -1.03811511961, 1.50396939662, 1.03459801491
100580, -1.08853226778, 1.57701124571, 0.859146688801
100581, -1.12940682167, 1.63622826027, 0.676163672072
100582, -1.1603804554, 1.68110131564, 0.487253081326
100583, -1.1811816393, 1.71123703315, 0.294070997119
100584, -1.19162802023, 1.7263712287, 0.0983109459575
100585, -1.19162802023, 1.7263712287, -0.0983109459575
100586, -1.1811816393, 1.71123703315, -0.294070997119
100587, -1.1603804554, 1.68110131564, -0.487253081326
100588, -1.12940682167, 1.63622826027, -0.676163672072
100589, -1.08853226778, 1.57701124571, -0.859146688801
100590, -1.03811511961, 1.50396939662, -1.03459801491
100591, -0.978597357994, 1.41774303276, -1.20097956018
100592, -0.910500744076, 1.31908805567, -1.35683274445
100593, -0.834422245333, 1.20886932203, -1.5007912842
100594, -0.751028802259, 1.08805306197, -1.63159317003
100595, -0.661051481644, 0.957698408585, -1.74809173009
100596, -0.565279067698, 0.81894811308, -1.84926568229
100597, -0.46455114719, 0.673018526884, -1.9342280874
100598, -0.52733810962, 0.625040977878, 1.9342280874
100599, -0.641680031942, 0.760567664906, 1.84926568229
100600, -0.750396680323, 0.889426852164, 1.74809173009
100601, -0.852534992646, 1.01048889841, 1.63159317003
100602, -0.947199575635, 1.12269251586, 1.5007912842
100603, -1.0335605543, 1.22505407398, 1.35683274445
100604, -1.110860847, 1.31667622239, 1.20097956018
100605, -1.17842280243, 1.39675575755, 1.03459801491
100606, -1.23565414018, 1.46459066396, 0.859146688801
100607, -1.28205314299, 1.5195862684, 0.676163672072
100608, -1.317213055, 1.56126045311, 0.487253081326
100609, -1.34082564762, 1.58924788227, 0.294070997119
100610, -1.35268392159, 1.60330320469, 0.0983109459575
100611, -1.35268392159, 1.60330320469, -0.0983109459575
100612, -1.34082564762, 1.58924788227, -0.294070997119
100613, -1.317213055, 1.56126045311, -0.487253081326
100614, -1.28205314299, 1.5195862684, -0.676163672072
100615, -1.23565414018, 1.46459066396, -0.859146688801
100616, -1.17842280243, 1.39675575755, -1.03459801491
100617, -1.110860847, 1.31667622239, -1.20097956018
100618, -1.0335605543, 1.22505407398, -1.35683274445
100619, -0.947199575635, 1.12269251586, -1.5007912842
100620, -0.852534992646, 1.01048889841, -1.63159317003
100621, -0.750396680323, 0.889426852164, -1.74809173009
100622, -0.641680031942, 0.760567664906, -1.84926568229
100623, -0.52733810962, 0.625040977878, -1.9342280874
100624, -0.585201458204, 0.571227589669, 1.9342280874
100625, -0.71208980262, 0.695086001369, 1.84926568229
100626, -0.832735627382, 0.812850956867, 1.74809173009
100627, -0.946081293511, 0.92349007226, 1.63159317003
100628, -1.05113315871, 1.02603343217, 1.5007912842
100629, -1.1469702881, 1.11958209247, 1.35683274445
100630, -1.23275252759, 1.20331596089, 1.20097956018
100631, -1.30772786905, 1.2765009863, 1.03459801491
100632, -1.37123904281, 1.33849559379, 0.859146688801
100633, -1.42272927953, 1.38875630897, 0.676163672072
100634, -1.4617471912, 1.4268425224, 0.487253081326
100635, -1.48795072814, 1.45242035212, 0.294070997119
100636, -1.50111017763, 1.46526557064, 0.0983109459575
100637, -1.50111017763, 1.46526557064, -0.0983109459575
100638, -1.48795072814, 1.45242035212, -0.294070997119
100639, -1.4617471912, 1.4268425224, -0.487253081326
100640, -1.42272927953, 1.38875630897, -0.676163672072
100641, -1.37123904281, 1.33849559379, -0.859146688801
100642, -1.30772786905, 1.2765009863, -1.03459801491
100643, -1.23275252759, 1.20331596089, -1.20097956018
100644, -1.1469702881, 1.11958209247, -1.35683274445
100645, -1.05113315871, 1.02603343217, -1.5007912842
100646, -0.946081293511, 0.92349007226, -1.63159317003
100647, -0.832735627382, 0.812850956867, -1.74809173009
100648, -0.71208980262, 0.695086001369, -1.84926568229
100649, -0.585201458204, 0.571227589669, -1.9342280874
100650, -0.637600938447, 0.512080803365, 1.9342280874
100651, -0.775850982672, 0.623114507118, 1.84926568229
100652, -0.907299546256, 0.728685691196, 1.74809173009
100653, -1.03079428825, 0.827868868127, 1.63159317003
100654, -1.14525259469, 0.919794550764, 1.5007912842
100655, -1.24967106936, 1.00365687462, 1.35683274445
100656, -1.34313432997, 1.07872066248, 1.20097956018
100657, -1.42482303291, 1.14432786928, 1.03459801491
100658, -1.49402105595, 1.19990335089, 0.859146688801
100659, -1.55012177613, 1.24495990607, 0.676163672072
100660, -1.59263338773, 1.2791025475, 0.487253081326
100661, -1.62118321362, 1.30203196447, 0.294070997119
100662, -1.63552097239, 1.31354714675, 0.0983109459575
100663, -1.63552097239, 1.31354714675, -0.0983109459575
100664, -1.62118321362, 1.30203196447, -0.294070997119
100665, -1.59263338773, 1.2791025475, -0.487253081326
100666, -1.55012177613, 1.24495990607, -0.676163672072
100667, -1.49402105595, 1.19990335089, -0.859146688801
100668, -1.42482303291, 1.14432786928, -1.03459801491
100669, -1.34313432997, 1.07872066248, -1.20097956018
100670, -1.24967106936, 1.00365687462, -1.35683274445
100671, -1.14525259469, 0.919794550764, -1.5007912842
100672, -1.03079428825, 0.827868868127, -1.63159317003
100673, -0.907299546256, 0.728685691196, -1.74809173009
100674, -0.775850982672, 0.623114507118, -1.84926568229
100675, -0.637600938447, 0.512080803365, -1.9342280874
100676, -0.68404731052, 0.448152856573, 1.9342280874
100677, -0.832368251141, 0.545325160603, 1.84926568229
100678, -0.973392253725, 0.637716883561, 1.74809173009
100679, -1.10588303444, 0.72451807543, 1.63159317003
100680, -1.22867911577, 0.804967795465, 1.5007912842
100681, -1.34070400855, 0.878360782958, 1.35683274445
100682, -1.440975649, 0.94405363989, 1.20097956018
100683, -1.52861500801, 1.00147047127, 1.03459801491
100684, -1.60285379703, 1.05010793371, 0.859146688801
100685, -1.66304120337, 1.08953964795, 0.676163672072
100686, -1.70864959542, 1.11941993674, 0.487253081326
100687, -1.73927914824, 1.13948685518, 0.294070997119
100688, -1.75466134851, 1.14956448707, 0.0983109459575
100689, -1.75466134851, 1.14956448707, -0.0983109459575
100690, -1.73927914824, 1.13948685518, -0.294070997119
100691, -1.70864959542, 1.11941993674, -0.487253081326
100692, -1.66304120337, 1.08953964795, -0.676163672072
100693, -1.60285379703, 1.05010793371, -0.859146688801
100694, -1.52861500801, 1.00147047127, -1.03459801491
100695, -1.440975649, 0.94405363989, -1.20097956018
100696, -1.34070400855, 0.878360782958, -1.35683274445
100697, -1.22867911577, 0.804967795465, -1.5007912842
100698, -1.10588303444, 0.72451807543, -1.63159317003
100699, -0.973392253725, 0.637716883561, -1.74809173009
100700, -0.832368251141, 0.545325160603, -1.84926568229
100701, -0.68404731052, 0.448152856573, -1.9342280874
100702, -0.724106917161, 0.380040627307, 1.9342280874
100703, -0.881113921518, 0.462444259993, 1.84926568229
100704, -1.03039665999, 0.540793885207, 1.74809173009
100705, -1.17064644871, 0.614402652674, 1.63159317003
100706, -1.30063379099, 0.682625272747, 1.5007912842
100707, -1.41921915564, 0.744863673323, 1.35683274445
100708, -1.52536296665, 0.800572242825, 1.20097956018
100709, -1.61813471664, 0.849262613301, 1.03459801491
100710, -1.69672112408, 0.890507941684, 0.859146688801
100711, -1.76043326296, 0.923946651707, 0.676163672072
100712, -1.80871260222, 0.949285603651, 0.487253081326
100713, -1.84113590207, 0.966302664148, 0.294070997119
100714, -1.85741892438, 0.974848653511, 0.0983109459575
100715, -1.85741892438, 0.974848653511, -0.0983109459575
100716, -1.84113590207, 0.966302664148, -0.294070997119
100717, -1.80871260222, 0.949285603651, -0.487253081326
100718, -1.76043326296, 0.923946651707, -0.676163672072
100719, -1.69672112408, 0.890507941684, -0.859146688801
100720, -1.61813471664, 0.849262613301, -1.03459801491
100721, -1.52536296665, 0.800572242825, -1.20097956018
100722, -1.41921915564, 0.744863673323, -1.35683274445
100723, -1.30063379099, 0.682625272747, -1.5007912842
100724, -1.17064644871, 0.614402652674, -1.63159317003
100725, -1.03039665999, 0.540793885207, -1.74809173009
100726, -0.881113921518, 0.462444259993, -1.84926568229
100727, -0.724106917161, 0.380040627307, -1.9342280874
100728, -0.757405732616, 0.3083800611, 1.9342280874
100729, -0.921632868614, 0.375245641927, 1.84926568229
100730, -1.07778053026, 0.438821640055, 1.74809173009
100731, -1.2244798525, 0.498550717891, 1.63159317003
100732, -1.36044479894, 0.55390926178, 1.5007912842
100733, -1.48448343586, 0.604411972262, 1.35683274445
100734, -1.59550838127, 0.649616118432, 1.20097956018
100735, -1.6925463374, 0.689125419131, 1.03459801491
100736, -1.77474662315, 0.722593516942, 0.859146688801
100737, -1.84138863151, 0.749727014519, 0.676163672072
100738, -1.89188814678, 0.770288046648, 0.487253081326
100739, -1.92580246605, 0.784096365493, 0.294070997119
100740, -1.9428342802, 0.791030920728, 0.0983109459575
100741, -1.9428342802, 0.791030920728, -0.0983109459575
100742, -1.92580246605, 0.784096365493, -0.294070997119
100743, -1.89188814678, 0.770288046648, -0.487253081326
100744, -1.84138863151, 0.749727014519, -0.676163672072
100745, -1.77474662315, 0.722593516942, -0.859146688801
100746, -1.6925463374, 0.689125419131, -1.03459801491
100747, -1.59550838127, 0.649616118432, -1.20097956018
100748, -1.48448343586, 0.604411972262, -1.35683274445
100749, -1.36044479894, 0.55390926178, -1.5007912842
100750, -1.2244798525, 0.498550717891, -1.63159317003
100751, -1.07778053026, 0.438821640055, -1.74809173009
100752, -0.921632868614, 0.375245641927, -1.84926568229
100753, -0.757405732616, 0.3083800611, -1.9342280874
100754, -0.783632854818, 0.233840233351, 1.9342280874
100755, -0.953546777935, 0.284543456406, 1.84926568229
100756, -1.11510145412, 0.332752235485, 1.74809173009
100757, -1.26688061783, 0.378043949382, 1.63159317003
100758, -1.40755370036, 0.420021549279, 1.5007912842
100759, -1.53588749422, 0.458317039467, 1.35683274445
100760, -1.65075696401, 0.49259470337, 1.20097956018
100761, -1.75115510904, 0.522554046597, 1.03459801491
100762, -1.83620179118, 0.547932431225, 0.859146688801
100763, -1.90515145054, 0.568507378198, 0.676163672072
100764, -1.95739964145, 0.584098517696, 0.487253081326
100765, -1.99248833129, 0.594569170336, 0.294070997119
100766, -2.01010991583, 0.599827545371, 0.0983109459575
100767, -2.01010991583, 0.599827545371, -0.0983109459575
100768, -1.99248833129, 0.594569170336, -0.294070997119
100769, -1.95739964145, 0.584098517696, -0.487253081326
100770, -1.90515145054, 0.568507378198, -0.676163672072
100771, -1.83620179118, 0.547932431225, -0.859146688801
100772, -1.75115510904, 0.522554046597, -1.03459801491
100773, -1.65075696401, 0.49259470337, -1.20097956018
100774, -1.53588749422, 0.458317039467, -1.35683274445
100775, -1.40755370036, 0.420021549279, -1.5007912842
100776, -1.26688061783, 0.378043949382, -1.63159317003
100777, -1.11510145412, 0.332752235485, -1.74809173009
100778, -0.953546777935, 0.284543456406, -1.84926568229
100779, -0.783632854818, 0.233840233351, -1.9342280874
100780, -0.802543408193, 0.157117102348, 1.9342280874
100781, -0.97655767791, 0.191184565299, 1.84926568229
100782, -1.14201097614, 0.223576012947, 1.74809173009
100783, -1.29745286017, 0.254007486376, 1.63159317003
100784, -1.44152065212, 0.282212208741, 1.5007912842
100785, -1.57295138487, 0.307942923961, 1.35683274445
100786, -1.69059287375, 0.330974064285, 1.20097956018
100787, -1.79341381725, 0.351103727725, 1.03459801491
100788, -1.88051283782, 0.368155448029, 0.859146688801
100789, -1.95112638379, 0.381979741664, 0.676163672072
100790, -2.00463542306, 0.392455418262, 0.487253081326
100791, -2.04057086982, 0.399490643035, 0.294070997119
100792, -2.05861769676, 0.403023741837, 0.0983109459575
100793, -2.05861769676, 0.403023741837, -0.0983109459575
100794, -2.04057086982, 0.399490643035, -0.294070997119
100795, -2.00463542306, 0.392455418262, -0.487253081326
100796, -1.95112638379, 0.381979741664, -0.676163672072
100797, -1.88051283782, 0.368155448029, -0.859146688801
100798, -1.79341381725, 0.351103727725, -1.03459801491
100799, -1.69059287375, 0.330974064285, -1.20097956018
100800, -1.57295138487, 0.307942923961, -1.35683274445
100801, -1.44152065212, 0.282212208741, -1.5007912842
100802, -1.29745286017, 0.254007486376, -1.63159317003
100803, -1.14201097614, 0.223576012947, -1.74809173009
100804, -0.97655767791, 0.191184565299, -1.84926568229
100805, -0.802543408193, 0.157117102348, -1.9342280874
100806, -0.813960829999, 0.0789270112934, 1.9342280874
100807, -0.990450721966, 0.0960406354176, 1.84926568229
100808, -1.15825784938, 0.112312321416, 1.74809173009
100809, -1.31591113473, 0.127599423909, 1.63159317003
100810, -1.46202851395, 0.141767928848, 1.5007912842
100811, -1.59532905224, 0.154693628344, 1.35683274445
100812, -1.71464417334, 0.166263209537, 1.20097956018
100813, -1.81892790386, 0.176375247947, 1.03459801491
100814, -1.90726604277, 0.184941096609, 0.859146688801
100815, -1.97888417569, 0.1918856632, 0.676163672072
100816, -2.03315446385, 0.197148068329, 0.487253081326
100817, -2.06960114794, 0.200682179236, 0.294070997119
100818, -2.08790471892, 0.202457014215, 0.0983109459575
100819, -2.08790471892, 0.202457014215, -0.0983109459575
100820, -2.06960114794, 0.200682179236, -0.294070997119
100821, -2.03315446385, 0.197148068329, -0.487253081326
100822, -1.97888417569, 0.1918856632, -0.676163672072
100823, -1.90726604277, 0.184941096609, -0.859146688801
100824, -1.81892790386, 0.176375247947, -1.03459801491
100825, -1.71464417334, 0.166263209537, -1.20097956018
100826, -1.59532905224, 0.154693628344, -1.35683274445
100827, -1.46202851395, 0.141767928848, -1.5007912842
100828, -1.31591113473, 0.127599423909, -1.63159317003
100829, -1.15825784938, 0.112312321416, -1.74809173009
100830, -0.990450721966, 0.0960406354176, -1.84926568229
100831, -0.813960829999, 0.0789270112934, -1.9342280874
100832, -0.817778518845, 1.00148984551e-16, 1.9342280874
100833, -0.995096194493, 1.21864136943e-16, 1.84926568229
100834, -1.16369038115, 1.42510970048e-16, 1.74809173009
100835, -1.32208310158, 1.61908483856e-16, 1.63159317003
100836, -1.46888580947, 1.79886630488e-16, 1.5007912842
100837, -1.60281156209, 1.96287804915e-16, 1.35683274445
100838, -1.72268630227, 2.109682266e-16, 1.20097956018
100839, -1.82745915072, 2.2379919995e-16, 1.03459801491
100840, -1.91621161856, 2.34668242516e-16, 0.859146688801
100841, -1.98816565923, 2.43480071075e-16, 0.676163672072
100842, -2.04269048921, 2.50157436926e-16, 0.487253081326
100843, -2.07930811777, 2.54641803087e-16, 0.294070997119
100844, -2.09769753727, 2.5689385746e-16, 0.0983109459575
100845, -2.09769753727, 2.5689385746e-16, -0.0983109459575
100846, -2.07930811777, 2.54641803087e-16, -0.294070997119
100847, -2.04269048921, 2.50157436926e-16, -0.487253081326
100848, -1.98816565923, 2.43480071075e-16, -0.676163672072
100849, -1.91621161856, 2.34668242516e-16, -0.859146688801
100850, -1.82745915072, 2.2379919995e-16, -1.03459801491
100851, -1.72268630227, 2.109682266e-16, -1.20097956018
100852, -1.60281156209, 1.96287804915e-16, -1.35683274445
100853, -1.46888580947, 1.79886630488e-16, -1.5007912842
100854, -1.32208310158, 1.61908483856e-16, -1.63159317003
100855, -1.16369038115, 1.42510970048e-16, -1.74809173009
100856, -0.995096194493, 1.21864136943e-16, -1.84926568229
100857, -0.817778518845, 1.00148984551e-16, -1.9342280874
100858, -0.813960829999, -0.0789270112934, 1.9342280874
100859, -0.990450721966, -0.0960406354176, 1.84926568229
100860, -1.15825784938, -0.112312321416, 1.74809173009
100861, -1.31591113473, -0.127599423909, 1.63159317003
100862, -1.46202851395, -0.141767928848, 1.5007912842
100863, -1.59532905224, -0.154693628344, 1.35683274445
100864, -1.71464417334, -0.166263209537, 1.20097956018
100865, -1.81892790386, -0.176375247947, 1.03459801491
100866, -1.90726604277, -0.184941096609, 0.859146688801
100867, -1.97888417569, -0.1918856632, 0.676163672072
100868, -2.03315446385, -0.197148068329, 0.487253081326
100869, -2.06960114794, -0.200682179236, 0.294070997119
100870, -2.08790471892, -0.202457014215, 0.0983109459575
100871, -2.08790471892, -0.202457014215, -0.0983109459575
100872, -2.06960114794, -0.200682179236, -0.294070997119
100873, -2.03315446385, -0.197148068329, -0.487253081326
100874, -1.97888417569, -0.1918856632, -0.676163672072
100875, -1.90726604277, -0.184941096609, -0.859146688801
100876, -1.81892790386, -0.176375247947, -1.03459801491
100877, -1.71464417334, -0.166263209537, -1.20097956018
100878, -1.59532905224, -0.154693628344, -1.35683274445
100879, -1.46202851395, -0.141767928848, -1.5007912842
100880, -1.31591113473, -0.127599423909, -1.63159317003
100881, -1.15825784938, -0.112312321416, -1.74809173009
100882, -0.990450721966, -0.0960406354176, -1.84926568229
100883, -0.813960829999, -0.0789270112934, -1.9342280874
100884, -0.802543408193, -0.157117102348, 1.9342280874
100885, -0.97655767791, -0.191184565299, 1.84926568229
100886, -1.14201097614, -0.223576012947, 1.74809173009
100887, -1.29745286017, -0.254007486376, 1.63159317003
100888, -1.44152065212, -0.282212208741, 1.5007912842
100889, -1.57295138487, -0.307942923961, 1.35683274445
100890, -1.69059287375, -0.330974064285, 1.20097956018
100891, -1.79341381725, -0.351103727725, 1.03459801491
100892, -1.88051283782, -0.368155448029, 0.859146688801
100893, -1.95112638379, -0.381979741664, 0.676163672072
100894, -2.00463542306, -0.392455418262, 0.487253081326
100895, -2.04057086982, -0.399490643035, 0.294070997119
100896, -2.05861769676, -0.403023741837, 0.0983109459575
100897, -2.05861769676, -0.403023741837, -0.0983109459575
100898, -2.04057086982, -0.399490643035, -0.294070997119
100899, -2.00463542306, -0.392455418262, -0.487253081326
100900, -1.95112638379, -0.381979741664, -0.676163672072
100901, -1.88051283782, -0.368155448029, -0.859146688801
100902, -1.79341381725, -0.351103727725, -1.03459801491
100903, -1.69059287375, -0.330974064285, -1.20097956018
100904, -1.57295138487, -0.307942923961, -1.35683274445
100905, -1.44152065212, -0.282212208741, -1.5007912842
100906, -1.29745286017, -0.254007486376, -1.63159317003
100907, -1.14201097614, -0.223576012947, -1.74809173009
100908, -0.97655767791, -0.191184565299, -1.84926568229
100909, -0.802543408193, -0.157117102348, -1.9342280874
100910, -0.783632854818, -0.233840233351, 1.9342280874
100911, -0.953546777935, -0.284543456406, 1.84926568229
100912, -1.11510145412, -0.332752235485, 1.74809173009
100913, -1.26688061783, -0.378043949382, 1.63159317003
100914, -1.40755370036, -0.420021549279, 1.5007912842
100915, -1.53588749422, -0.458317039467, 1.35683274445
100916, -1.65075696401, -0.49259470337, 1.20097956018
100917, -1.75115510904, -0.522554046597, 1.03459801491
100918, -1.83620179118, -0.547932431225, 0.859146688801
100919, -1.90515145054, -0.568507378198, 0.676163672072
100920, -1.95739964145, -0.584098517696, 0.487253081326
100921, -1.99248833129, -0.594569170336, 0.294070997119
100922, -2.01010991583, -0.599827545371, 0.0983109459575
100923, -2.01010991583, -0.599827545371, -0.0983109459575
100924, -1.99248833129, -0.594569170336, -0.294070997119
100925, -1.95739964145, -0.584098517696, -0.487253081326
100926, -1.90515145054, -0.568507378198, -0.676163672072
100927, -1.83620179118, -0.547932431225, -0.859146688801
100928, -1.75115510904, -0.522554046597, -1.03459801491
100929, -1.65075696401, -0.49259470337, -1.20097956018
100930, -1.53588749422, -0.458317039467, -1.35683274445
100931, -1.40755370036, -0.420021549279, -1.5007912842
100932, -1.26688061783, -0.378043949382, -1.63159317003
100933, -1.11510145412, -0.332752235485, -1.74809173009
100934, -0.953546777935, -0.284543456406, -1.84926568229
100935, -0.783632854818, -0.233840233351, -1.9342280874
100936, -0.757405732616, -0.3083800611, 1.9342280874
100937, -0.921632868614, -0.375245641927, 1.84926568229
100938, -1.07778053026, -0.438821640055, 1.74809173009
100939, -1.2244798525, -0.498550717891, 1.63159317003
100940, -1.36044479894, -0.55390926178, 1.5007912842
100941, -1.48448343586, -0.604411972262, 1.35683274445
100942, -1.59550838127, -0.649616118432, 1.20097956018
100943, -1.6925463374, -0.689125419131, 1.03459801491
100944, -1.77474662315, -0.722593516942, 0.859146688801
100945, -1.84138863151, -0.749727014519, 0.676163672072
100946, -1.89188814678, -0.770288046648, 0.487253081326
100947, -1.92580246605, -0.784096365493, 0.294070997119
100948, -1.9428342802, -0.791030920728, 0.0983109459575
100949, -1.9428342802, -0.791030920728, -0.0983109459575
100950, -1.92580246605, -0.784096365493, -0.294070997119
100951, -1.89188814678, -0.770288046648, -0.487253081326
100952, -1.84138863151, -0.749727014519, -0.676163672072
100953, -1.77474662315, -0.722593516942, -0.859146688801
100954, -1.6925463374, -0.689125419131, -1.03459801491
100955, -1.59550838127, -0.649616118432, -1.20097956018
100956, -1.48448343586, -0.604411972262, -1.35683274445
100957, -1.36044479894, -0.55390926178, -1.5007912842
100958, -1.2244798525, -0.498550717891, -1.63159317003
100959, -1.07778053026, -0.438821640055, -1.74809173009
100960, -0.921632868614, -0.375245641927, -1.84926568229
100961, -0.757405732616, -0.3083800611, -1.9342280874
100962, -0.724106917161, -0.380040627307, 1.9342280874
100963, -0.881113921518, -0.462444259993, 1.84926568229
100964, -1.03039665999, -0.540793885207, 1.74809173009
100965, -1.17064644871, -0.614402652674, 1.63159317003
100966, -1.30063379099, -0.682625272747, 1.5007912842
100967, -1.41921915564, -0.744863673323, 1.35683274445
100968, -1.52536296665, -0.800572242825, 1.20097956018
100969, -1.61813471664, -0.849262613301, 1.03459801491
100970, -1.69672112408, -0.890507941684, 0.859146688801
100971, -1.76043326296, -0.923946651707, 0.676163672072
100972, -1.80871260222, -0.949285603651, 0.487253081326
100973, -1.84113590207, -0.966302664148, 0.294070997119
100974, -1.85741892438, -0.974848653511, 0.0983109459575
100975, -1.85741892438, -0.974848653511, -0.0983109459575
100976, -1.84113590207, -0.966302664148, -0.294070997119
100977, -1.80871260222, -0.949285603651, -0.487253081326
100978, -1.76043326296, -0.923946651707, -0.676163672072
100979, -1.69672112408, -0.890507941684, -0.859146688801
100980, -1.61813471664, -0.849262613301, -1.03459801491
100981, -1.52536296665, -0.800572242825, -1.20097956018
100982, -1.41921915564, -0.744863673323, -1.35683274445
100983, -1.30063379099, -0.682625272747, -1.5007912842
100984, -1.17064644871, -0.614402652674, -1.63159317003
100985, -1.03039665999, -0.540793885207, -1.74809173009
100986, -0.881113921518, -0.462444259993, -1.84926568229
100987, -0.724106917161, -0.380040627307, -1.9342280874
100988, -0.68404731052, -0.448152856573, 1.9342280874
100989, -0.832368251141, -0.545325160603, 1.84926568229
100990, -0.973392253725, -0.637716883561, 1.74809173009
100991, -1.10588303444, -0.72451807543, 1.63159317003
100992, -1.22867911577, -0.804967795465, 1.5007912842
100993, -1.34070400855, -0.878360782958, 1.35683274445
100994, -1.440975649, -0.94405363989, 1.20097956018
100995, -1.52861500801, -1.00147047127, 1.03459801491
100996, -1.60285379703, -1.05010793371, 0.859146688801
100997, -1.66304120337, -1.08953964795, 0.676163672072
100998, -1.70864959542, -1.11941993674, 0.487253081326
100999, -1.73927914824, -1.13948685518, 0.294070997119
101000, -1.75466134851, -1.14956448707, 0.0983109459575
101001, -1.75466134851, -1.14956448707, -0.0983109459575
101002, -1.73927914824, -1.13948685518, -0.294070997119
101003, -1.70864959542, -1.11941993674, -0.487253081326
101004, -1.66304120337, -1.08953964795, -0.676163672072
101005, -1.60285379703, -1.05010793371, -0.859146688801
101006, -1.52861500801, -1.00147047127, -1.03459801491
101007, -1.440975649, -0.94405363989, -1.20097956018
101008, -1.34070400855, -0.878360782958, -1.35683274445
101009, -1.22867911577, -0.804967795465, -1.5007912842
101010, -1.10588303444, -0.72451807543, -1.63159317003
101011, -0.973392253725, -0.637716883561, -1.74809173009
101012, -0.832368251141, -0.545325160603, -1.84926568229
101013, -0.68404731052, -0.448152856573, -1.9342280874
101014, -0.637600938447, -0.512080803365, 1.9342280874
101015, -0.775850982672, -0.623114507118, 1.84926568229
101016, -0.907299546256, -0.728685691196, 1.74809173009
101017, -1.03079428825, -0.827868868127, 1.63159317003
101018, -1.14525259469, -0.919794550764, 1.5007912842
101019, -1.24967106936, -1.00365687462, 1.35683274445
101020, -1.34313432997, -1.07872066248, 1.20097956018
101021, -1.42482303291, -1.14432786928, 1.03459801491
101022, -1.49402105595, -1.19990335089, 0.859146688801
101023, -1.55012177613, -1.24495990607, 0.676163672072
101024, -1.59263338773, -1.2791025475, 0.487253081326
101025, -1.62118321362, -1.30203196447, 0.294070997119
101026, -1.63552097239, -1.31354714675, 0.0983109459575
101027, -1.63552097239, -1.31354714675, -0.0983109459575
101028, -1.62118321362, -1.30203196447, -0.294070997119
101029, -1.59263338773, -1.2791025475, -0.487253081326
101030, -1.55012177613, -1.24495990607, -0.676163672072
101031, -1.49402105595, -1.19990335089, -0.859146688801
101032, -1.42482303291, -1.14432786928, -1.03459801491
101033, -1.34313432997, -1.07872066248, -1.20097956018
101034, -1.24967106936, -1.00365687462, -1.35683274445
101035, -1.14525259469, -0.919794550764, -1.5007912842
101036, -1.03079428825, -0.827868868127, -1.63159317003
101037, -0.907299546256, -0.728685691196, -1.74809173009
101038, -0.775850982672, -0.623114507118, -1.84926568229
101039, -0.637600938447, -0.512080803365, -1.9342280874
101040, -0.585201458204, -0.571227589669, 1.9342280874
101041, -0.71208980262, -0.695086001369, 1.84926568229
101042, -0.832735627382, -0.812850956867, 1.74809173009
101043, -0.946081293511, -0.92349007226, 1.63159317003
101044, -1.05113315871, -1.02603343217, 1.5007912842
101045, -1.1469702881, -1.11958209247, 1.35683274445
101046, -1.23275252759, -1.20331596089, 1.20097956018
101047, -1.30772786905, -1.2765009863, 1.03459801491
101048, -1.37123904281, -1.33849559379, 0.859146688801
101049, -1.42272927953, -1.38875630897, 0.676163672072
101050, -1.4617471912, -1.4268425224, 0.487253081326
101051, -1.48795072814, -1.45242035212, 0.294070997119
101052, -1.50111017763, -1.46526557064, 0.0983109459575
101053, -1.50111017763, -1.46526557064, -0.0983109459575
101054, -1.48795072814, -1.45242035212, -0.294070997119
101055, -1.4617471912, -1.4268425224, -0.487253081326
101056, -1.42272927953, -1.38875630897, -0.676163672072
101057, -1.37123904281, -1.33849559379, -0.859146688801
101058, -1.30772786905, -1.2765009863, -1.03459801491
101059, -1.23275252759, -1.20331596089, -1.20097956018
101060, -1.1469702881, -1.11958209247, -1.35683274445
101061, -1.05113315871, -1.02603343217, -1.5007912842
101062, -0.946081293511, -0.92349007226, -1.63159317003
101063, -0.832735627382, -0.812850956867, -1.74809173009
101064, -0.71208980262, -0.695086001369, -1.84926568229
101065, -0.585201458204, -0.571227589669, -1.9342280874
101066, -0.52733810962, -0.625040977878, 1.9342280874
101067, -0.641680031942, -0.760567664906, 1.84926568229
101068, -0.750396680323, -0.889426852164, 1.74809173009
101069, -0.852534992646, -1.01048889841, 1.63159317003
101070, -0.947199575635, -1.12269251586, 1.5007912842
101071, -1.0335605543, -1.22505407398, 1.35683274445
101072, -1.110860847, -1.31667622239, 1.20097956018
101073, -1.17842280243, -1.39675575755, 1.03459801491
101074, -1.23565414018, -1.46459066396, 0.859146688801
101075, -1.28205314299, -1.5195862684, 0.676163672072
101076, -1.317213055, -1.56126045311, 0.487253081326
101077, -1.34082564762, -1.58924788227, 0.294070997119
101078, -1.35268392159, -1.60330320469, 0.0983109459575
101079, -1.35268392159, -1.60330320469, -0.0983109459575
101080, -1.34082564762, -1.58924788227, -0.294070997119
101081, -1.317213055, -1.56126045311, -0.487253081326
101082, -1.28205314299, -1.5195862684, -0.676163672072
101083, -1.23565414018, -1.46459066396, -0.859146688801
101084, -1.17842280243, -1.39675575755, -1.03459801491
101085, -1.110860847, -1.31667622239, -1.20097956018
101086, -1.0335605543, -1.22505407398, -1.35683274445
101087, -0.947199575635, -1.12269251586, -1.5007912842
101088, -0.852534992646, -1.01048889841, -1.63159317003
101089, -0.750396680323, -0.889426852164, -1.74809173009
101090, -0.641680031942, -0.760567664906, -1.84926568229
101091, -0.52733810962, -0.625040977878, -1.9342280874
101092, -0.46455114719, -0.673018526884, 1.9342280874
101093, -0.565279067698, -0.81894811308, 1.84926568229
101094, -0.661051481644, -0.957698408585, 1.74809173009
101095, -0.751028802259, -1.08805306197, 1.63159317003
101096, -0.834422245333, -1.20886932203, 1.5007912842
101097, -0.910500744076, -1.31908805567, 1.35683274445
101098, -0.978597357994, -1.41774303276, 1.20097956018
101099, -1.03811511961, -1.50396939662, 1.03459801491
101100, -1.08853226778, -1.57701124571, 0.859146688801
101101, -1.12940682167, -1.63622826027, 0.676163672072
101102, -1.1603804554, -1.68110131564, 0.487253081326
101103, -1.1811816393, -1.71123703315, 0.294070997119
101104, -1.19162802023, -1.7263712287, 0.0983109459575
101105, -1.19162802023, -1.7263712287, -0.0983109459575
101106, -1.1811816393, -1.71123703315, -0.294070997119
101107, -1.1603804554, -1.68110131564, -0.487253081326
101108, -1.12940682167, -1.63622826027, -0.676163672072
101109, -1.08853226778, -1.57701124571, -0.859146688801
101110, -1.03811511961, -1.50396939662, -1.03459801491
101111, -0.978597357994, -1.41774303276, -1.20097956018
101112, -0.910500744076, -1.31908805567, -1.35683274445
101113, -0.834422245333, -1.20886932203, -1.5007912842
101114, -0.751028802259, -1.08805306197, -1.63159317003
101115, -0.661051481644, -0.957698408585, -1.74809173009
101116, -0.565279067698, -0.81894811308, -1.84926568229
101117, -0.46455114719, -0.673018526884, -1.9342280874
101118, -0.397426795865, -0.714712283239, 1.9342280874
101119, -0.483600245104, -0.869682263375, 1.84926568229
101120, -0.565534223391, -1.017028193, 1.74809173009
101121, -0.642510458298, -1.15545836726, 1.63159317003
101122, -0.71385413935, -1.28375924106, 1.5007912842
101123, -0.778939833729, -1.40080606759, 1.35683274445
101124, -0.837196969121, -1.50557275842, 1.20097956018
101125, -0.888114835627, -1.59714087866, 1.03459801491
101126, -0.931247062883, -1.67470769837, 0.859146688801
101127, -0.966215533166, -1.73759322974, 0.676163672072
101128, -0.992713696146, -1.78524618812, 0.487253081326
101129, -1.01050925626, -1.81724882491, 0.294070997119
101130, -1.01944620912, -1.8333205897, 0.0983109459575
101131, -1.01944620912, -1.8333205897, -0.0983109459575
101132, -1.01050925626, -1.81724882491, -0.294070997119
101133, -0.992713696146, -1.78524618812, -0.487253081326
101134, -0.966215533166, -1.73759322974, -0.676163672072
101135, -0.931247062883, -1.67470769837, -0.859146688801
101136, -0.888114835627, -1.59714087866, -1.03459801491
101137, -0.837196969121, -1.50557275842, -1.20097956018
101138, -0.778939833729, -1.40080606759, -1.35683274445
101139, -0.71385413935, -1.28375924106, -1.5007912842
101140, -0.642510458298, -1.15545836726, -1.63159317003
101141, -0.565534223391, -1.017028193, -1.74809173009
101142, -0.483600245104, -0.869682263375, -1.84926568229
101143, -0.397426795865, -0.714712283239, -1.9342280874
101144, -0.326591777627, -0.749732963574, 1.9342280874
101145, -0.397406177321, -0.9122964247, 1.84926568229
101146, -0.464736724469, -1.06686225921, 1.74809173009
101147, -0.527993167303, -1.21207546909, 1.63159317003
101148, -0.586620969604, -1.34666304593, 1.5007912842
101149, -0.640106172028, -1.46944513069, 1.35683274445
101150, -0.687979897719, -1.5793453569, 1.20097956018
101151, -0.729822462709, -1.67540028664, 1.03459801491
101152, -0.76526705507, -1.75676785647, 0.859146688801
101153, -0.794002950559, -1.82273475938, 0.676163672072
101154, -0.815778236578, -1.87272269796, 0.487253081326
101155, -0.830402020559, -1.90629345403, 0.294070997119
101156, -0.83774610342, -1.92315273031, 0.0983109459575
101157, -0.83774610342, -1.92315273031, -0.0983109459575
101158, -0.830402020559, -1.90629345403, -0.294070997119
101159, -0.815778236578, -1.87272269796, -0.487253081326
101160, -0.794002950559, -1.82273475938, -0.676163672072
101161, -0.76526705507, -1.75676785647, -0.859146688801
101162, -0.729822462709, -1.67540028664, -1.03459801491
101163, -0.687979897719, -1.5793453569, -1.20097956018
101164, -0.640106172028, -1.46944513069, -1.35683274445
101165, -0.586620969604, -1.34666304593, -1.5007912842
101166, -0.527993167303, -1.21207546909, -1.63159317003
101167, -0.464736724469, -1.06686225921, -1.74809173009
101168, -0.397406177321, -0.9122964247, -1.84926568229
101169, -0.326591777627, -0.749732963574, -1.9342280874
101170, -0.252707459958, -0.777753589233, 1.9342280874
101171, -0.307501635136, -0.946392720113, 1.84926568229
101172, -0.359600103967, -1.10673531995, 1.74809173009
101173, -0.408546146365, -1.25737574885, 1.63159317003
101174, -0.453910677922, -1.39699342079, 1.5007912842
101175, -0.495296011466, -1.52436438052, 1.35683274445
101176, -0.532339343377, -1.6383720333, 1.20097956018
101177, -0.564715934097, -1.73801693355, 1.03459801491
101178, -0.592141954954, -1.82242554643, 0.859146688801
101179, -0.614376976336, -1.89085790569, 0.676163672072
101180, -0.631226075415, -1.94271410054, 0.487253081326
101181, -0.642541544934, -1.97753953479, 0.294070997119
101182, -0.648224188076, -1.99502891204, 0.0983109459575
101183, -0.648224188076, -1.99502891204, -0.0983109459575
101184, -0.642541544934, -1.97753953479, -0.294070997119
101185, -0.631226075415, -1.94271410054, -0.487253081326
101186, -0.614376976336, -1.89085790569, -0.676163672072
101187, -0.592141954954, -1.82242554643, -0.859146688801
101188, -0.564715934097, -1.73801693355, -1.03459801491
101189, -0.532339343377, -1.6383720333, -1.20097956018
101190, -0.495296011466, -1.52436438052, -1.35683274445
101191, -0.453910677922, -1.39699342079, -1.5007912842
101192, -0.408546146365, -1.25737574885, -1.63159317003
101193, -0.359600103967, -1.10673531995, -1.74809173009
101194, -0.307501635136, -0.946392720113, -1.84926568229
101195, -0.252707459958, -0.777753589233, -1.9342280874
101196, -0.176463680823, -0.798512539184, 1.9342280874
101197, -0.214726033035, -0.97165280169, 1.84926568229
101198, -0.251105994184, -1.1362750912, 1.74809173009
101199, -0.285284640136, -1.29093625001, 1.63159317003
101200, -0.31696234454, -1.43428044448, 1.5007912842
101201, -0.345861405496, -1.56505105085, 1.35683274445
101202, -0.371728480017, -1.68210167147, 1.20097956018
101203, -0.394336804963, -1.78440618464, 1.03459801491
101204, -0.413488184948, -1.87106774009, 0.859146688801
101205, -0.429014729819, -1.94132662119, 0.676163672072
101206, -0.44078032646, -1.994566905, 0.487253081326
101207, -0.448681832026, -2.03032186174, 0.294070997119
101208, -0.452649978143, -2.04827804635, 0.0983109459575
101209, -0.452649978143, -2.04827804635, -0.0983109459575
101210, -0.448681832026, -2.03032186174, -0.294070997119
101211, -0.44078032646, -1.994566905, -0.487253081326
101212, -0.429014729819, -1.94132662119, -0.676163672072
101213, -0.413488184948, -1.87106774009, -0.859146688801
101214, -0.394336804963, -1.78440618464, -1.03459801491
101215, -0.371728480017, -1.68210167147, -1.20097956018
101216, -0.345861405496, -1.56505105085, -1.35683274445
101217, -0.31696234454, -1.43428044448, -1.5007912842
101218, -0.285284640136, -1.29093625001, -1.63159317003
101219, -0.251105994184, -1.1362750912, -1.74809173009
101220, -0.214726033035, -0.97165280169, -1.84926568229
101221, -0.176463680823, -0.798512539184, -1.9342280874
101222, -0.0985723078456, -0.811815992704, 1.9342280874
101223, -0.119945591819, -0.987840822854, 1.84926568229
101224, -0.140267375389, -1.15520576807, 1.74809173009
101225, -0.159359508087, -1.31244362724, 1.63159317003
101226, -0.177054619148, -1.4581759781, 1.5007912842
101227, -0.193197584769, -1.59112526119, 1.35683274445
101228, -0.207646887996, -1.71012597955, 1.20097956018
101229, -0.22027585933, -1.81413491597, 1.03459801491
101230, -0.230973787168, -1.90224027839, 0.859146688801
101231, -0.239646888362, -1.9736696931, 0.676163672072
101232, -0.246219130359, -2.02779697568, 0.487253081326
101233, -0.250632897744, -2.0641476205, 0.294070997119
101234, -0.252849497323, -2.08240296043, 0.0983109459575
101235, -0.252849497323, -2.08240296043, -0.0983109459575
101236, -0.250632897744, -2.0641476205, -0.294070997119
101237, -0.246219130359, -2.02779697568, -0.487253081326
101238, -0.239646888362, -1.9736696931, -0.676163672072
101239, -0.230973787168, -1.90224027839, -0.859146688801
101240, -0.22027585933, -1.81413491597, -1.03459801491
101241, -0.207646887996, -1.71012597955, -1.20097956018
101242, -0.193197584769, -1.59112526119, -1.35683274445
101243, -0.177054619148, -1.4581759781, -1.5007912842
101244, -0.159359508087, -1.31244362724, -1.63159317003
101245, -0.140267375389, -1.15520576807, -1.74809173009
101246, -0.119945591819, -0.987840822854, -1.84926568229
101247, -0.0985723078456, -0.811815992704, -1.9342280874
101248, -0.0197605917889, -0.817539739032, 1.9342280874
101249, -0.0240452509292, -0.994805640415, 1.84926568229
101250, -0.0281191179039, -1.16335059995, 1.74809173009
101251, -0.0319464792477, -1.32169707193, 1.63159317003
101252, -0.035493782481, -1.4684569155, 1.5007912842
101253, -0.0387299302479, -1.60234356368, 1.35683274445
101254, -0.0416265529297, -1.72218330212, 1.20097956018
101255, -0.0441582573473, -1.82692555838, 1.03459801491
101256, -0.0463028493694, -1.91565211175, 0.859146688801
101257, -0.0480415284769, -1.98758514285, 0.676163672072
101258, -0.0493590525776, -2.04209405235, 0.487253081326
101259, -0.0502438716253, -2.07870098908, 0.294070997119
101260, -0.0506882288732, -2.09708503913, 0.0983109459575
101261, -0.0506882288732, -2.09708503913, -0.0983109459575
101262, -0.0502438716253, -2.07870098908, -0.294070997119
101263, -0.0493590525776, -2.04209405235, -0.487253081326
101264, -0.0480415284769, -1.98758514285, -0.676163672072
101265, -0.0463028493694, -1.91565211175, -0.859146688801
101266, -0.0441582573473, -1.82692555838, -1.03459801491
101267, -0.0416265529297, -1.72218330212, -1.20097956018
101268, -0.0387299302479, -1.60234356368, -1.35683274445
101269, -0.035493782481, -1.4684569155, -1.5007912842
101270, -0.0319464792477, -1.32169707193, -1.63159317003
101271, -0.0281191179039, -1.16335059995, -1.74809173009
101272, -0.0240452509292, -0.994805640415, -1.84926568229
101273, -0.0197605917889, -0.817539739032, -1.9342280874
101274, 0.0592356235891, -0.81563033709, 1.9342280874
101275, 0.0720795939898, -0.992482225747, 1.84926568229
101276, 0.084291680209, -1.16063354072, 1.74809173009
101277, 0.0957648252605, -1.31861018718, 1.63159317003
101278, 0.106398450069, -1.46502726633, 1.5007912842
101279, 0.116099335197, -1.59860121604, 1.35683274445
101280, 0.124782438046, -1.71816106322, 1.20097956018
101281, 0.132371638386, -1.82265868908, 1.03459801491
101282, 0.138800405658, -1.91117801748, 0.859146688801
101283, 0.144012382215, -1.98294304566, 0.676163672072
101284, 0.147961877378, -2.03732464707, 0.487253081326
101285, 0.150614267986, -2.0738460866, 0.294070997119
101286, 0.151946301912, -2.09218719985, 0.0983109459575
101287, 0.151946301912, -2.09218719985, -0.0983109459575
101288, 0.150614267986, -2.0738460866, -0.294070997119
101289, 0.147961877378, -2.03732464707, -0.487253081326
101290, 0.144012382215, -1.98294304566, -0.676163672072
101291, 0.138800405658, -1.91117801748, -0.859146688801
101292, 0.132371638386, -1.82265868908, -1.03459801491
101293, 0.124782438046, -1.71816106322, -1.20097956018
101294, 0.116099335197, -1.59860121604, -1.35683274445
101295, 0.106398450069, -1.46502726633, -1.5007912842
101296, 0.0957648252605, -1.31861018718, -1.63159317003
101297, 0.084291680209, -1.16063354072, -1.74809173009
101298, 0.0720795939898, -0.992482225747, -1.84926568229
101299, 0.0592356235891, -0.81563033709, -1.9342280874
101300, 0.13767877191, -0.806105614451, 1.9342280874
101301, 0.167531451161, -0.980892271947, 1.84926568229
101302, 0.195915469615, -1.14707995883, 1.74809173009
101303, 0.222581999398, -1.30321179439, 1.63159317003
101304, 0.247297268959, -1.4479190523, 1.5007912842
101305, 0.26984461243, -1.57993315957, 1.35683274445
101306, 0.290026369019, -1.69809681741, 1.20097956018
101307, 0.307665615797, -1.8013741467, 1.03459801491
101308, 0.322607718696, -1.888859769, 0.859146688801
101309, 0.334721688096, -1.95978674352, 0.676163672072
101310, 0.343901327152, -2.01353329049, 0.487253081326
101311, 0.350066162757, -2.04962824198, 0.294070997119
101312, 0.353162151016, -2.0677551724, 0.0983109459575
101313, 0.353162151016, -2.0677551724, -0.0983109459575
101314, 0.350066162757, -2.04962824198, -0.294070997119
101315, 0.343901327152, -2.01353329049, -0.487253081326
101316, 0.334721688096, -1.95978674352, -0.676163672072
101317, 0.322607718696, -1.888859769, -0.859146688801
101318, 0.307665615797, -1.8013741467, -1.03459801491
101319, 0.290026369019, -1.69809681741, -1.20097956018
101320, 0.26984461243, -1.57993315957, -1.35683274445
101321, 0.247297268959, -1.4479190523, -1.5007912842
101322, 0.222581999398, -1.30321179439, -1.63159317003
101323, 0.195915469615, -1.14707995883, -1.74809173009
101324, 0.167531451161, -0.980892271947, -1.84926568229
101325, 0.13767877191, -0.806105614451, -1.9342280874
101326, 0.214836450633, -0.789054500883, 1.9342280874
101327, 0.261419112311, -0.960143991291, 1.84926568229
101328, 0.305710049068, -1.12281640044, 1.74809173009
101329, 0.347320985378, -1.27564566421, 1.63159317003
101330, 0.385887139879, -1.41729200821, 1.5007912842
101331, 0.421070423223, -1.54651369288, 1.35683274445
101332, 0.452562401927, -1.66217789914, 1.20097956018
101333, 0.48008700225, -1.76327065926, 1.03459801491
101334, 0.503402930386, -1.84890574578, 0.859146688801
101335, 0.522305787761, -1.91833244059, 0.676163672072
101336, 0.536629862892, -1.97094211609, 0.487253081326
101337, 0.546249584087, -2.00627357071, 0.294070997119
101338, 0.551080620271, -2.02401707203, 0.0983109459575
101339, 0.551080620271, -2.02401707203, -0.0983109459575
101340, 0.546249584087, -2.00627357071, -0.294070997119
101341, 0.536629862892, -1.97094211609, -0.487253081326
101342, 0.522305787761, -1.91833244059, -0.676163672072
101343, 0.503402930386, -1.84890574578, -0.859146688801
101344, 0.48008700225, -1.76327065926, -1.03459801491
101345, 0.452562401927, -1.66217789914, -1.20097956018
101346, 0.421070423223, -1.54651369288, -1.35683274445
101347, 0.385887139879, -1.41729200821, -1.5007912842
101348, 0.347320985378, -1.27564566421, -1.63159317003
101349, 0.305710049068, -1.12281640044, -1.74809173009
101350, 0.261419112311, -0.960143991291, -1.84926568229
101351, 0.214836450633, -0.789054500883, -1.9342280874
101352, 0.289988259301, -0.764636198039, 1.9342280874
101353, 0.352865973645, -0.930431104885, 1.84926568229
101354, 0.412650296162, -1.08806940784, 1.74809173009
101355, 0.468817128898, -1.23616917416, 1.63159317003
101356, 0.520874086545, -1.3734320905, 1.5007912842
101357, 0.568364812925, -1.49865484452, 1.35683274445
101358, 0.610872981625, -1.61073967367, 1.20097956018
101359, 0.648025945715, -1.70870398876, 1.03459801491
101360, 0.679498004549, -1.79168898778, 0.859146688801
101361, 0.705013259014, -1.85896718453, 0.676163672072
101362, 0.72434803019, -1.90994878619, 0.487253081326
101363, 0.737332820229, -1.94418686367, 0.294070997119
101364, 0.743853798255, -1.96138126959, 0.0983109459575
101365, 0.743853798255, -1.96138126959, -0.0983109459575
101366, 0.737332820229, -1.94418686367, -0.294070997119
101367, 0.72434803019, -1.90994878619, -0.487253081326
101368, 0.705013259014, -1.85896718453, -0.676163672072
101369, 0.679498004549, -1.79168898778, -0.859146688801
101370, 0.648025945715, -1.70870398876, -1.03459801491
101371, 0.610872981625, -1.61073967367, -1.20097956018
101372, 0.568364812925, -1.49865484452, -1.35683274445
101373, 0.520874086545, -1.3734320905, -1.5007912842
101374, 0.468817128898, -1.23616917416, -1.63159317003
101375, 0.412650296162, -1.08806940784, -1.74809173009
101376, 0.352865973645, -0.930431104885, -1.84926568229
101377, 0.289988259301, -0.764636198039, -1.9342280874
101378, 0.362432525725, -0.733078693034, 1.9342280874
101379, 0.441018220457, -0.892031033944, 1.84926568229
101380, 0.515737738623, -1.04316340434, 1.74809173009
101381, 0.585936053202, -1.1851509056, 1.63159317003
101382, 0.650997772208, -1.31674880742, 1.5007912842
101383, 0.710352533507, -1.43680345967, 1.35683274445
101384, 0.763480004884, -1.54426240586, 1.20097956018
101385, 0.809914445525, -1.63818360951, 1.03459801491
101386, 0.849248788925, -1.71774371244, 0.859146688801
101387, 0.881138211423, -1.78224525274, 0.676163672072
101388, 0.905303155095, -1.83112277909, 0.487253081326
101389, 0.921531778493, -1.86394780771, 0.294070997119
101390, 0.929681813744, -1.88043257871, 0.0983109459575
101391, 0.929681813744, -1.88043257871, -0.0983109459575
101392, 0.921531778493, -1.86394780771, -0.294070997119
101393, 0.905303155095, -1.83112277909, -0.487253081326
101394, 0.881138211423, -1.78224525274, -0.676163672072
101395, 0.849248788925, -1.71774371244, -0.859146688801
101396, 0.809914445525, -1.63818360951, -1.03459801491
101397, 0.763480004884, -1.54426240586, -1.20097956018
101398, 0.710352533507, -1.43680345967, -1.35683274445
101399, 0.650997772208, -1.31674880742, -1.5007912842
101400, 0.585936053202, -1.1851509056, -1.63159317003
101401, 0.515737738623, -1.04316340434, -1.74809173009
101402, 0.441018220457, -0.892031033944, -1.84926568229
101403, 0.362432525725, -0.733078693034, -1.9342280874
101404, 0.431492857308, -0.69467662979, 1.9342280874
101405, 0.525052798971, -0.845302309583, 1.84926568229
101406, 0.614009876776, -0.9885176652, 1.74809173009
101407, 0.697584250448, -1.12306720236, 1.63159317003
101408, 0.775043267073, -1.2477713955, 1.5007912842
101409, 0.845707883877, -1.36153702804, 1.35683274445
101410, 0.908958621046, -1.46336677605, 1.20097956018
101411, 0.964240992378, -1.55236795128, 1.03459801491
101412, 1.01107036618, -1.62776032687, 0.859146688801
101413, 1.04903621376, -1.68888297723, 0.676163672072
101414, 1.07780570836, -1.73520007196, 0.487253081326
101415, 1.09712664283, -1.76630557329, 0.294070997119
101416, 1.10682964063, -1.7819267955, 0.0983109459575
101417, 1.10682964063, -1.7819267955, -0.0983109459575
101418, 1.09712664283, -1.76630557329, -0.294070997119
101419, 1.07780570836, -1.73520007196, -0.487253081326
101420, 1.04903621376, -1.68888297723, -0.676163672072
101421, 1.01107036618, -1.62776032687, -0.859146688801
101422, 0.964240992378, -1.55236795128, -1.03459801491
101423, 0.908958621046, -1.46336677605, -1.20097956018
101424, 0.845707883877, -1.36153702804, -1.35683274445
101425, 0.775043267073, -1.2477713955, -1.5007912842
101426, 0.697584250448, -1.12306720236, -1.63159317003
101427, 0.614009876776, -0.9885176652, -1.74809173009
101428, 0.525052798971, -0.845302309583, -1.84926568229
101429, 0.431492857308, -0.69467662979, -1.9342280874
101430, 0.496524456342, -0.649788558023, 1.9342280874
101431, 0.604185100969, -0.790681225312, 1.84926568229
101432, 0.706549170146, -0.924642402962, 1.74809173009
101433, 0.802719291502, -1.05049772325, 1.63159317003
101434, 0.891852391777, -1.16714387825, 1.5007912842
101435, 0.973167087599, -1.27355829202, 1.35683274445
101436, 1.04595053547, -1.36880808493, 1.20097956018
101437, 1.10956468089, -1.45205825175, 1.03459801491
101438, 1.16345185184, -1.52257898172, 0.859146688801
101439, 1.20713964762, -1.5797520564, 0.676163672072
101440, 1.24024508013, -1.62307626929, 0.487253081326
101441, 1.26247793131, -1.65217181963, 0.294070997119
101442, 1.27364329738, -1.66678364191, 0.0983109459575
101443, 1.27364329738, -1.66678364191, -0.0983109459575
101444, 1.26247793131, -1.65217181963, -0.294070997119
101445, 1.24024508013, -1.62307626929, -0.487253081326
101446, 1.20713964762, -1.5797520564, -0.676163672072
101447, 1.16345185184, -1.52257898172, -0.859146688801
101448, 1.10956468089, -1.45205825175, -1.03459801491
101449, 1.04595053547, -1.36880808493, -1.20097956018
101450, 0.973167087599, -1.27355829202, -1.35683274445
101451, 0.891852391777, -1.16714387825, -1.5007912842
101452, 0.802719291502, -1.05049772325, -1.63159317003
101453, 0.706549170146, -0.924642402962, -1.74809173009
101454, 0.604185100969, -0.790681225312, -1.84926568229
101455, 0.496524456342, -0.649788558023, -1.9342280874
101456, 0.556920140308, -0.598833585567, 1.9342280874
101457, 0.677676289468, -0.728677763478, 1.84926568229
101458, 0.792491604283, -0.85213400374, 1.74809173009
101459, 0.900359558813, -0.968120029928, 1.63159317003
101460, 1.000334531, -1.07561905308, 1.5007912842
101461, 1.09154009243, -1.17368868538, 1.35683274445
101462, 1.17317669156, -1.26146920153, 1.20097956018
101463, 1.24452866292, -1.33819107556, 1.03459801491
101464, 1.30497050103, -1.40318172684, 0.859146688801
101465, 1.35397234383, -1.45587141626, 0.676163672072
101466, 1.39110461775, -1.49579824081, 0.487253081326
101467, 1.41604180351, -1.52261218285, 0.294070997119
101468, 1.42856528982, -1.53607817855, 0.0983109459575
101469, 1.42856528982, -1.53607817855, -0.0983109459575
101470, 1.41604180351, -1.52261218285, -0.294070997119
101471, 1.39110461775, -1.49579824081, -0.487253081326
101472, 1.35397234383, -1.45587141626, -0.676163672072
101473, 1.30497050103, -1.40318172684, -0.859146688801
101474, 1.24452866292, -1.33819107556, -1.03459801491
101475, 1.17317669156, -1.26146920153, -1.20097956018
101476, 1.09154009243, -1.17368868538, -1.35683274445
101477, 1.000334531, -1.07561905308, -1.5007912842
101478, 0.900359558813, -0.968120029928, -1.63159317003
101479, 0.792491604283, -0.85213400374, -1.74809173009
101480, 0.677676289468, -0.728677763478, -1.84926568229
101481, 0.556920140308, -0.598833585567, -1.9342280874
101482, 0.612116010979, -0.542287465268, 1.9342280874
101483, 0.744840197042, -0.659870833697, 1.84926568229
101484, 0.871034757837, -0.77166945892, 1.74809173009
101485, 0.989593411511, -0.876703260738, 1.63159317003
101486, 1.09947681622, -0.974051462628, 1.5007912842
101487, 1.19972168152, -1.06286066371, 1.35683274445
101488, 1.28944921297, -1.14235232007, 1.20097956018
101489, 1.36787281615, -1.21182956985, 1.03459801491
101490, 1.43430499226, -1.27068334225, 0.859146688801
101491, 1.48816336508, -1.31839769697, 0.676163672072
101492, 1.52897578636, -1.35455434717, 0.487253081326
101493, 1.55638447491, -1.37883632636, 0.294070997119
101494, 1.57014915306, -1.3910307671, 0.0983109459575
101495, 1.57014915306, -1.3910307671, -0.0983109459575
101496, 1.55638447491, -1.37883632636, -0.294070997119
101497, 1.52897578636, -1.35455434717, -0.487253081326
101498, 1.48816336508, -1.31839769697, -0.676163672072
101499, 1.43430499226, -1.27068334225, -0.859146688801
101500, 1.36787281615, -1.21182956985, -1.03459801491
101501, 1.28944921297, -1.14235232007, -1.20097956018
101502, 1.19972168152, -1.06286066371, -1.35683274445
101503, 1.09947681622, -0.974051462628, -1.5007912842
101504, 0.989593411511, -0.876703260738, -1.63159317003
101505, 0.871034757837, -0.77166945892, -1.74809173009
101506, 0.744840197042, -0.659870833697, -1.84926568229
101507, 0.612116010979, -0.542287465268, -1.9342280874
101508, 0.66159671938, -0.480678153018, 1.9342280874
101509, 0.805049732383, -0.584902867735, 1.84926568229
101510, 0.941445294544, -0.684000044277, 1.74809173009
101511, 1.06958769716, -0.777100949416, 1.63159317003
101512, 1.18835358266, -0.863389416108, 1.5007912842
101513, 1.29670179251, -0.9421089984, 1.35683274445
101514, 1.39368249451, -1.0125696028, 1.20097956018
101515, 1.47844550946, -1.07415353796, 1.03459801491
101516, 1.55024776423, -1.12632092966, 0.859146688801
101517, 1.60845980595, -1.16861445361, 0.676163672072
101518, 1.65257132002, -1.20066334456, 0.487253081326
101519, 1.68219560382, -1.2221866466, 0.294070997119
101520, 1.69707295671, -1.23299567618, 0.0983109459575
101521, 1.69707295671, -1.23299567618, -0.0983109459575
101522, 1.68219560382, -1.2221866466, -0.294070997119
101523, 1.65257132002, -1.20066334456, -0.487253081326
101524, 1.60845980595, -1.16861445361, -0.676163672072
101525, 1.55024776423, -1.12632092966, -0.859146688801
101526, 1.47844550946, -1.07415353796, -1.03459801491
101527, 1.39368249451, -1.0125696028, -1.20097956018
101528, 1.29670179251, -0.9421089984, -1.35683274445
101529, 1.18835358266, -0.863389416108, -1.5007912842
101530, 1.06958769716, -0.777100949416, -1.63159317003
101531, 0.941445294544, -0.684000044277, -1.74809173009
101532, 0.805049732383, -0.584902867735, -1.84926568229
101533, 0.66159671938, -0.480678153018, -1.9342280874
101534, 0.70490027747, -0.414580878365, 1.9342280874
101535, 0.857742735281, -0.504473821291, 1.84926568229
101536, 1.00306581019, -0.589944305514, 1.74809173009
101537, 1.13959553066, -0.670243055908, 1.63159317003
101538, 1.26613501187, -0.744666135238, 1.5007912842
101539, 1.38157494825, -0.812561115207, 1.35683274445
101540, 1.4849033381, -0.873332795963, 1.20097956018
101541, 1.57521435538, -0.926448423897, 1.03459801491
101542, 1.65171629052, -0.971442362021, 0.859146688801
101543, 1.71373849099, -1.00792017196, 0.676163672072
101544, 1.76073724053, -1.0355620718, 0.487253081326
101545, 1.79230052562, -1.05412573942, 0.294070997119
101546, 1.80815164742, -1.06344843684, 0.0983109459575
101547, 1.80815164742, -1.06344843684, -0.0983109459575
101548, 1.79230052562, -1.05412573942, -0.294070997119
101549, 1.76073724053, -1.0355620718, -0.487253081326
101550, 1.71373849099, -1.00792017196, -0.676163672072
101551, 1.65171629052, -0.971442362021, -0.859146688801
101552, 1.57521435538, -0.926448423897, -1.03459801491
101553, 1.4849033381, -0.873332795963, -1.20097956018
101554, 1.38157494825, -0.812561115207, -1.35683274445
101555, 1.26613501187, -0.744666135238, -1.5007912842
101556, 1.13959553066, -0.670243055908, -1.63159317003
101557, 1.00306581019, -0.589944305514, -1.74809173009
101558, 0.857742735281, -0.504473821291, -1.84926568229
101559, 0.70490027747, -0.414580878365, -1.9342280874
101560, 0.741622371595, -0.344612773754, 1.9342280874
101561, 0.902427225366, -0.4193346387, 1.84926568229
101562, 1.05532097064, -0.490380415722, 1.74809173009
101563, 1.19896326774, -0.557127283575, 1.63159317003
101564, 1.33209487963, -0.618990107302, 1.5007912842
101565, 1.45354871093, -0.675426567815, 1.35683274445
101566, 1.56226003931, -0.725941916119, 1.20097956018
101567, 1.65727584929, -0.770093310521, 1.03459801491
101568, 1.73776318684, -0.807493698788, 0.859146688801
101569, 1.80301646148, -0.837815211236, 0.676163672072
101570, 1.85246363182, -0.860792034991, 0.487253081326
101571, 1.88567122032, -0.87622274423, 0.294070997119
101572, 1.90234811337, -0.883972065979, 0.0983109459575
101573, 1.90234811337, -0.883972065979, -0.0983109459575
101574, 1.88567122032, -0.87622274423, -0.294070997119
101575, 1.85246363182, -0.860792034991, -0.487253081326
101576, 1.80301646148, -0.837815211236, -0.676163672072
101577, 1.73776318684, -0.807493698788, -0.859146688801
101578, 1.65727584929, -0.770093310521, -1.03459801491
101579, 1.56226003931, -0.725941916119, -1.20097956018
101580, 1.45354871093, -0.675426567815, -1.35683274445
101581, 1.33209487963, -0.618990107302, -1.5007912842
101582, 1.19896326774, -0.557127283575, -1.63159317003
101583, 1.05532097064, -0.490380415722, -1.74809173009
101584, 0.902427225366, -0.4193346387, -1.84926568229
101585, 0.741622371595, -0.344612773754, -1.9342280874
101586, 0.771420137455, -0.271427112524, 1.9342280874
101587, 0.938685995593, -0.33028024157, 1.84926568229
101588, 1.09772288352, -0.386237976115, 1.74809173009
101589, 1.24713660783, -0.438809763904, 1.63159317003
101590, 1.3856173364, -0.487534735512, 1.5007912842
101591, 1.51195108094, -0.531985744543, 1.35683274445
101592, 1.62503033946, -0.571773112199, 1.20097956018
101593, 1.72386380512, -0.606548043394, 1.03459801491
101594, 1.80758505649, -0.636005684456, 0.859146688801
101595, 1.87546015307, -0.65988779562, 0.676163672072
101596, 1.9268940693, -0.677985014881, 0.487253081326
101597, 1.9614359109, -0.690138693363, 0.294070997119
101598, 1.97878286755, -0.69624228611, 0.0983109459575
101599, 1.97878286755, -0.69624228611, -0.0983109459575
101600, 1.9614359109, -0.690138693363, -0.294070997119
101601, 1.9268940693, -0.677985014881, -0.487253081326
101602, 1.87546015307, -0.65988779562, -0.676163672072
101603, 1.80758505649, -0.636005684456, -0.859146688801
101604, 1.72386380512, -0.606548043394, -1.03459801491
101605, 1.62503033946, -0.571773112199, -1.20097956018
101606, 1.51195108094, -0.531985744543, -1.35683274445
101607, 1.3856173364, -0.487534735512, -1.5007912842
101608, 1.24713660783, -0.438809763904, -1.63159317003
101609, 1.09772288352, -0.386237976115, -1.74809173009
101610, 0.938685995593, -0.33028024157, -1.84926568229
101611, 0.771420137455, -0.271427112524, -1.9342280874
101612, 0.794015361339, -0.195707209477, 1.9342280874
101613, 0.966180507595, -0.238142106815, 1.84926568229
101614, 1.1298756536, -0.278489336591, 1.74809173009
101615, 1.28366576944, -0.316395195699, 1.63159317003
101616, 1.42620265744, -0.351527383256, 1.5007912842
101617, 1.55623677109, -0.383577913709, 1.35683274445
101618, 1.67262816918, -0.412265816786, 1.20097956018
101619, 1.77435650907, -0.437339600612, 1.03459801491
101620, 1.8605299915, -0.458579456411, 0.859146688801
101621, 1.93039317852, -0.475799185453, 0.676163672072
101622, 1.98333361604, -0.48884783136, 0.487253081326
101623, 2.01888720286, -0.497611003463, 0.294070997119
101624, 2.03674225925, -0.502011879607, 0.0983109459575
101625, 2.03674225925, -0.502011879607, -0.0983109459575
101626, 2.01888720286, -0.497611003463, -0.294070997119
101627, 1.98333361604, -0.48884783136, -0.487253081326
101628, 1.93039317852, -0.475799185453, -0.676163672072
101629, 1.8605299915, -0.458579456411, -0.859146688801
101630, 1.77435650907, -0.437339600612, -1.03459801491
101631, 1.67262816918, -0.412265816786, -1.20097956018
101632, 1.55623677109, -0.383577913709, -1.35683274445
101633, 1.42620265744, -0.351527383256, -1.5007912842
101634, 1.28366576944, -0.316395195699, -1.63159317003
101635, 1.1298756536, -0.278489336591, -1.74809173009
101636, 0.966180507595, -0.238142106815, -1.84926568229
101637, 0.794015361339, -0.195707209477, -1.9342280874
101638, 0.80919707773, -0.118160040946, 1.9342280874
101639, 0.98465405252, -0.143780503372, 1.84926568229
101640, 1.15147907913, -0.168140517166, 1.74809173009
101641, 1.30820968962, -0.191026530799, 1.63159317003
101642, 1.45347190853, -0.212237914536, 1.5007912842
101643, 1.5859922978, -0.231588719245, 1.35683274445
101644, 1.70460912034, -0.24890930652, 1.20097956018
101645, 1.80828252437, -0.264047835814, 1.03459801491
101646, 1.89610365927, -0.276871595539, 0.859146688801
101647, 1.96730264298, -0.287268166489, 0.676163672072
101648, 2.02125531117, -0.29514640735, 0.487253081326
101649, 2.05748868897, -0.300437253699, 0.294070997119
101650, 2.07568513725, -0.303094323444, 0.0983109459575
101651, 2.07568513725, -0.303094323444, -0.0983109459575
101652, 2.05748868897, -0.300437253699, -0.294070997119
101653, 2.02125531117, -0.29514640735, -0.487253081326
101654, 1.96730264298, -0.287268166489, -0.676163672072
101655, 1.89610365927, -0.276871595539, -0.859146688801
101656, 1.80828252437, -0.264047835814, -1.03459801491
101657, 1.70460912034, -0.24890930652, -1.20097956018
101658, 1.5859922978, -0.231588719245, -1.35683274445
101659, 1.45347190853, -0.212237914536, -1.5007912842
101660, 1.30820968962, -0.191026530799, -1.63159317003
101661, 1.15147907913, -0.168140517166, -1.74809173009
101662, 0.98465405252, -0.143780503372, -1.84926568229
101663, 0.80919707773, -0.118160040946, -1.9342280874
101664, 0.816823539033, -0.0395096439487, 1.9342280874
101665, 0.993934147858, -0.0480764601089, 1.84926568229
101666, 1.16233145475, -0.0562218150349, 1.74809173009
101667, 1.32053920841, -0.0638743026511, 1.63159317003
101668, 1.46717048404, -0.0709668375925, 1.5007912842
101669, 1.60093984175, -0.0774372433071, 1.35683274445
101670, 1.72067459543, -0.0832287971248, 1.20097956018
101671, 1.82532509296, -0.0882907275159, 1.03459801491
101672, 1.91397391805, -0.0925786591787, 0.859146688801
101673, 1.98584393272, -0.0960550020541, 0.676163672072
101674, 2.04030509007, -0.0986892808585, 0.487253081326
101675, 2.07687995755, -0.100458402244, 0.294070997119
101676, 2.09524790238, -0.101346857248, 0.0983109459575
101677, 2.09524790238, -0.101346857248, -0.0983109459575
101678, 2.07687995755, -0.100458402244, -0.294070997119
101679, 2.04030509007, -0.0986892808585, -0.487253081326
101680, 1.98584393272, -0.0960550020541, -0.676163672072
101681, 1.91397391805, -0.0925786591787, -0.859146688801
101682, 1.82532509296, -0.0882907275159, -1.03459801491
101683, 1.72067459543, -0.0832287971248, -1.20097956018
101684, 1.60093984175, -0.0774372433071, -1.35683274445
101685, 1.46717048404, -0.0709668375925, -1.5007912842
101686, 1.32053920841, -0.0638743026511, -1.63159317003
101687, 1.16233145475, -0.0562218150349, -1.74809173009
101688, 0.993934147858, -0.0480764601089, -1.84926568229
101689, 0.816823539033, -0.0395096439487, -1.9342280874
101690, 1.10267873879, 0, 2.01843989235
101691, 1.08495823781, 0.196890891558, 2.01843989235
101692, 1.03236628636, 0.387453547859, 2.01843989235
101693, 0.946593233041, 0.565563128334, 2.01843989235
101694, 0.830395894348, 0.725495044517, 2.01843989235
101695, 0.687508948359, 0.862108953031, 2.01843989235
101696, 0.522524899086, 0.971013970448, 2.01843989235
101697, 0.340746469621, 1.0487097999, 2.01843989235
101698, 0.148016168255, 1.09269923351, 2.01843989235
101699, -0.0494714945467, 1.10156841467, 2.01843989235
101700, -0.245369102808, 1.07503228061, 2.01843989235
101701, -0.433380346215, 1.01394372452, 2.01843989235
101702, -0.607462388708, 0.920266182838, 2.01843989235
101703, -0.762020090207, 0.797010528846, 2.01843989235
101704, -0.892085839014, 0.648138300675, 2.01843989235
101705, -0.993479214944, 0.47843437423, 2.01843989235
101706, -1.06294135147, 0.29335317334, 2.01843989235
101707, -1.09823967837, 0.0988433600873, 2.01843989235
101708, -1.09823967837, -0.0988433600873, 2.01843989235
101709, -1.06294135147, -0.29335317334, 2.01843989235
101710, -0.993479214944, -0.47843437423, 2.01843989235
101711, -0.892085839014, -0.648138300675, 2.01843989235
101712, -0.762020090207, -0.797010528846, 2.01843989235
101713, -0.607462388708, -0.920266182838, 2.01843989235
101714, -0.433380346215, -1.01394372452, 2.01843989235
101715, -0.245369102808, -1.07503228061, 2.01843989235
101716, -0.0494714945467, -1.10156841467, 2.01843989235
101717, 0.148016168255, -1.09269923351, 2.01843989235
101718, 0.340746469621, -1.0487097999, 2.01843989235
101719, 0.522524899086, -0.971013970448, 2.01843989235
101720, 0.687508948359, -0.862108953031, 2.01843989235
101721, 0.830395894348, -0.725495044517, 2.01843989235
101722, 0.946593233041, -0.565563128334, 2.01843989235
101723, 1.03236628636, -0.387453547859, 2.01843989235
101724, 1.08495823781, -0.196890891558, 2.01843989235
101725, 1.10267873879, -2.70078397588e-16, 2.01843989235
101726, 1.48170068064, 0, 1.75913703075
101727, 1.46848018877, 0.197491372498, 1.75913703075
101728, 1.42905463314, 0.391458506775, 1.75913703075
101729, 1.36412756372, 0.578440054725, 1.75913703075
101730, 1.27485760562, 0.755099326195, 1.75913703075
101731, 1.16283778333, 0.9182838323, 1.75913703075
101732, 1.03006709326, 1.06508154166, 1.75913703075
101733, 0.878914831509, 1.19287284568, 1.75913703075
101734, 0.712078313764, 1.29937730551, 1.75913703075
101735, 0.532534741641, 1.38269434654, 1.75913703075
101736, 0.343488074438, 1.4413371742, 1.75913703075
101737, 0.148311854409, 1.47425930584, 1.75913703075
101738, -0.0495109941759, 1.48087324524, 1.75913703075
101739, -0.246450317897, 1.4610609665, 1.75913703075
101740, -0.438991729856, 1.41517602019, 1.75913703075
101741, -0.623699323996, 1.34403722428, 1.75913703075
101742, -0.797276988924, 1.24891405227, 1.75913703075
101743, -0.956627227096, 1.1315039794, 1.75913703075
101744, -1.09890642974, 0.993902191212, 1.75913703075
101745, -1.22157562111, 0.838564194877, 1.75913703075
101746, -1.32244576658, 0.668262000619, 1.75913703075
101747, -1.39971683602, 0.486034655128, 1.75913703075
101748, -1.45200992536, 0.295134009703, 1.75913703075
101749, -1.47839186318, 0.098966690882, 1.75913703075
101750, -1.47839186318, -0.098966690882, 1.75913703075
101751, -1.45200992536, -0.295134009703, 1.75913703075
101752, -1.39971683602, -0.486034655128, 1.75913703075
101753, -1.32244576658, -0.668262000619, 1.75913703075
101754, -1.22157562111, -0.838564194877, 1.75913703075
101755, -1.09890642974, -0.993902191212, 1.75913703075
101756, -0.956627227096, -1.1315039794, 1.75913703075
101757, -0.797276988924, -1.24891405227, 1.75913703075
101758, -0.623699323996, -1.34403722428, 1.75913703075
101759, -0.438991729856, -1.41517602019, 1.75913703075
101760, -0.246450317897, -1.4610609665, 1.75913703075
101761, -0.0495109941759, -1.48087324524, 1.75913703075
101762, 0.148311854409, -1.47425930584, 1.75913703075
101763, 0.343488074438, -1.4413371742, 1.75913703075
101764, 0.532534741641, -1.38269434654, 1.75913703075
101765, 0.712078313764, -1.29937730551, 1.75913703075
101766, 0.878914831509, -1.19287284568, 1.75913703075
101767, 1.03006709326, -1.06508154166, 1.75913703075
101768, 1.16283778333, -0.9182838323, 1.75913703075
101769, 1.27485760562, -0.755099326195, 1.75913703075
101770, 1.36412756372, -0.578440054725, 1.75913703075
101771, 1.42905463314, -0.391458506775, 1.75913703075
101772, 1.46848018877, -0.197491372498, 1.75913703075
101773, 1.48170068064, -3.62911999169e-16, 1.75913703075
101774, 1.80165189214, 0, 1.42970292702
101775, 1.79071708544, 0.198196519505, 1.42970292702
101776, 1.7580453991, 0.393987201747, 1.42970292702
101777, 1.70403342313, 0.584995413069, 1.42970292702
101778, 1.62933678974, 0.768902572532, 1.42970292702
101779, 1.53486221488, 0.943476296348, 1.42970292702
101780, 1.42175649192, 1.10659749599, 1.42970292702
101781, 1.2913925711, 1.25628610107, 1.42970292702
101782, 1.14535289384, 1.3907250947, 1.42970292702
101783, 0.985410183983, 1.5082825696, 1.42970292702
101784, 0.813505929364, 1.60753153728, 1.42970292702
101785, 0.631726814768, 1.68726724971, 1.42970292702
101786, 0.4422793924, 1.74652182337, 1.42970292702
101787, 0.247463297335, 1.78457598799, 1.42970292702
101788, 0.0496433330642, 1.80096781757, 1.42970292702
101789, -0.148779234022, 1.7954983375, 1.42970292702
101790, -0.345395822748, 1.76823393986, 1.42970292702
101791, -0.537819774073, 1.7195055775, 1.42970292702
101792, -0.723715321889, 1.64990474674, 1.42970292702
101793, -0.900825946069, 1.56027630737, 1.42970292702
101794, -1.06700176355, 1.45170822723, 1.42970292702
101795, -1.22022562503, 1.32551837576, 1.42970292702
101796, -1.35863760038, 1.18323852679, 1.42970292702
101797, -1.48055755572, 1.02659576497, 1.42970292702
101798, -1.58450554795, 0.857491521224, 1.42970292702
101799, -1.66921978925, 0.677978491999, 1.42970292702
101800, -1.7336719635, 0.490235722296, 1.42970292702
101801, -1.77707970861, 0.296542155015, 1.42970292702
101802, -1.79891611335, 0.0992489676788, 1.42970292702
101803, -1.79891611335, -0.0992489676788, 1.42970292702
101804, -1.77707970861, -0.296542155015, 1.42970292702
101805, -1.7336719635, -0.490235722296, 1.42970292702
101806, -1.66921978925, -0.677978491999, 1.42970292702
101807, -1.58450554795, -0.857491521224, 1.42970292702
101808, -1.48055755572, -1.02659576497, 1.42970292702
101809, -1.35863760038, -1.18323852679, 1.42970292702
101810, -1.22022562503, -1.32551837576, 1.42970292702
101811, -1.06700176355, -1.45170822723, 1.42970292702
101812, -0.900825946069, -1.56027630737, 1.42970292702
101813, -0.723715321889, -1.64990474674, 1.42970292702
101814, -0.537819774073, -1.7195055775, 1.42970292702
101815, -0.345395822748, -1.76823393986, 1.42970292702
101816, -0.148779234022, -1.7954983375, 1.42970292702
101817, 0.0496433330642, -1.80096781757, 1.42970292702
101818, 0.247463297335, -1.78457598799, 1.42970292702
101819, 0.4422793924, -1.74652182337, 1.42970292702
101820, 0.631726814768, -1.68726724971, 1.42970292702
101821, 0.813505929364, -1.60753153728, 1.42970292702
101822, 0.985410183983, -1.5082825696, 1.42970292702
101823, 1.14535289384, -1.3907250947, 1.42970292702
101824, 1.2913925711, -1.25628610107, 1.42970292702
101825, 1.42175649192, -1.10659749599, 1.42970292702
101826, 1.53486221488, -0.943476296348, 1.42970292702
101827, 1.62933678974, -0.768902572532, 1.42970292702
101828, 1.70403342313, -0.584995413069, 1.42970292702
101829, 1.7580453991, -0.393987201747, 1.42970292702
101830, 1.79071708544, -0.198196519505, 1.42970292702
101831, 1.80165189214, -4.41277444577e-16, 1.42970292702
101832, 2.04977692814, 0, 1.04327107928
101833, 2.04020782069, 0.197832008335, 1.04327107928
101834, 2.01158984252, 0.39381691251, 1.04327107928
101835, 1.96419019199, 0.586124854282, 1.04327107928
101836, 1.89845142686, 0.772960306212, 1.04327107928
101837, 1.81498733226, 0.952578836026, 1.04327107928
101838, 1.71457718997, 1.12330339391, 1.04327107928
101839, 1.59815850242, 1.28353997065, 1.04327107928
101840, 1.46681823953, 1.43179248053, 1.04327107928
101841, 1.32178268996, 1.56667672979, 1.04327107928
101842, 1.16440601154, 1.68693334054, 1.04327107928
101843, 0.996157587922, 1.79143950921, 1.04327107928
101844, 0.818608309308, 1.87921948986, 1.04327107928
101845, 0.633415905472, 1.94945370446, 1.04327107928
101846, 0.442309467991, 2.00148639507, 1.04327107928
101847, 0.247073306182, 2.03483174648, 1.04327107928
101848, 0.0495302874824, 2.04917842213, 1.04327107928
101849, -0.148475182166, 2.04439247098, 1.04327107928
101850, -0.345094379042, 2.02051857816, 1.04327107928
101851, -0.538491522683, 1.97777964777, 1.04327107928
101852, -0.726860916064, 1.91657472169, 1.04327107928
101853, -0.908443804914, 1.83747525383, 1.04327107928
101854, -1.08154479873, 1.7412197746, 1.04327107928
101855, -1.24454770016, 1.62870699549, 1.04327107928
101856, -1.39593059504, 1.50098741799, 1.04327107928
101857, -1.53428006206, 1.35925352539, 1.04327107928
101858, -1.65830436954, 1.20482864885, 1.04327107928
101859, -1.76684553592, 1.03915461184, 1.04327107928
101860, -1.85889014159, 0.863778268203, 1.04327107928
101861, -1.93357879085, 0.68033705961, 1.04327107928
101862, -1.99021413592, 0.490543727198, 1.04327107928
101863, -2.02826738784, 0.296170320175, 1.04327107928
101864, -2.04738325364, 0.0990316506717, 1.04327107928
101865, -2.04738325364, -0.0990316506717, 1.04327107928
101866, -2.02826738784, -0.296170320175, 1.04327107928
101867, -1.99021413592, -0.490543727198, 1.04327107928
101868, -1.93357879085, -0.68033705961, 1.04327107928
101869, -1.85889014159, -0.863778268203, 1.04327107928
101870, -1.76684553592, -1.03915461184, 1.04327107928
101871, -1.65830436954, -1.20482864885, 1.04327107928
101872, -1.53428006206, -1.35925352539, 1.04327107928
101873, -1.39593059504, -1.50098741799, 1.04327107928
101874, -1.24454770016, -1.62870699549, 1.04327107928
101875, -1.08154479873, -1.7412197746, 1.04327107928
101876, -0.908443804914, -1.83747525383, 1.04327107928
101877, -0.726860916064, -1.91657472169, 1.04327107928
101878, -0.538491522683, -1.97777964777, 1.04327107928
101879, -0.345094379042, -2.02051857816, 1.04327107928
101880, -0.148475182166, -2.04439247098, 1.04327107928
101881, 0.0495302874824, -2.04917842213, 1.04327107928
101882, 0.247073306182, -2.03483174648, 1.04327107928
101883, 0.442309467991, -2.00148639507, 1.04327107928
101884, 0.633415905472, -1.94945370446, 1.04327107928
101885, 0.818608309308, -1.87921948986, 1.04327107928
101886, 0.996157587922, -1.79143950921, 1.04327107928
101887, 1.16440601154, -1.68693334054, 1.04327107928
101888, 1.32178268996, -1.56667672979, 1.04327107928
101889, 1.46681823953, -1.43179248053, 1.04327107928
101890, 1.59815850242, -1.28353997065, 1.04327107928
101891, 1.71457718997, -1.12330339391, 1.04327107928
101892, 1.81498733226, -0.952578836026, 1.04327107928
101893, 1.89845142686, -0.772960306212, 1.04327107928
101894, 1.96419019199, -0.586124854282, 1.04327107928
101895, 2.01158984252, -0.39381691251, 1.04327107928
101896, 2.04020782069, -0.197832008335, 1.04327107928
101897, 2.04977692814, -5.02050550802e-16, 1.04327107928
101898, 2.21618382645, 0, 0.615247305838
101899, 2.20726212192, 0.198657186606, 0.615247305838
101900, 2.18056884062, 0.395714902355, 0.615247305838
101901, 2.13631890118, 0.589586554386, 0.615247305838
101902, 2.07486857807, 0.778711202152, 0.615247305838
101903, 1.99671263318, 0.961566125194, 0.615247305838
101904, 1.90248033222, 1.13667908319, 0.615247305838
101905, 1.79293037826, 1.30264016956, 0.615247305838
101906, 1.66894480312, 1.45811316323, 0.615247305838
101907, 1.53152186575, 1.60184628706, 0.615247305838
101908, 1.38176801484, 1.73268228646, 0.615247305838
101909, 1.22088898034, 1.84956774689, 0.615247305838
101910, 1.05018006564, 1.95156157535, 0.615247305838
101911, 0.871015718543, 2.0378425775, 0.615247305838
101912, 0.684838465033, 2.10771606946, 0.615247305838
101913, 0.493147294882, 2.16061947094, 0.615247305838
101914, 0.297485592677, 2.19612683486, 0.615247305838
101915, 0.0994287113995, 2.21395227681, 0.615247305838
101916, -0.0994287113995, 2.21395227681, 0.615247305838
101917, -0.297485592677, 2.19612683486, 0.615247305838
101918, -0.493147294882, 2.16061947094, 0.615247305838
101919, -0.684838465033, 2.10771606946, 0.615247305838
101920, -0.871015718543, 2.0378425775, 0.615247305838
101921, -1.05018006564, 1.95156157535, 0.615247305838
101922, -1.22088898034, 1.84956774689, 0.615247305838
101923, -1.38176801484, 1.73268228646, 0.615247305838
101924, -1.53152186575, 1.60184628706, 0.615247305838
101925, -1.66894480312, 1.45811316323, 0.615247305838
101926, -1.79293037826, 1.30264016956, 0.615247305838
101927, -1.90248033222, 1.13667908319, 0.615247305838
101928, -1.99671263318, 0.961566125194, 0.615247305838
101929, -2.07486857807, 0.778711202152, 0.615247305838
101930, -2.13631890118, 0.589586554386, 0.615247305838
101931, -2.18056884062, 0.395714902355, 0.615247305838
101932, -2.20726212192, 0.198657186606, 0.615247305838
101933, -2.21618382645, 2.71404242939e-16, 0.615247305838
101934, -2.20726212192, -0.198657186606, 0.615247305838
101935, -2.18056884062, -0.395714902355, 0.615247305838
101936, -2.13631890118, -0.589586554386, 0.615247305838
101937, -2.07486857807, -0.778711202152, 0.615247305838
101938, -1.99671263318, -0.961566125194, 0.615247305838
101939, -1.90248033222, -1.13667908319, 0.615247305838
101940, -1.79293037826, -1.30264016956, 0.615247305838
101941, -1.66894480312, -1.45811316323, 0.615247305838
101942, -1.53152186575, -1.60184628706, 0.615247305838
101943, -1.38176801484, -1.73268228646, 0.615247305838
101944, -1.22088898034, -1.84956774689, 0.615247305838
101945, -1.05018006564, -1.95156157535, 0.615247305838
101946, -0.871015718543, -2.0378425775, 0.615247305838
101947, -0.684838465033, -2.10771606946, 0.615247305838
101948, -0.493147294882, -2.16061947094, 0.615247305838
101949, -0.297485592677, -2.19612683486, 0.615247305838
101950, -0.0994287113995, -2.21395227681, 0.615247305838
101951, 0.0994287113994, -2.21395227681, 0.615247305838
101952, 0.297485592677, -2.19612683486, 0.615247305838
101953, 0.493147294882, -2.16061947094, 0.615247305838
101954, 0.684838465033, -2.10771606946, 0.615247305838
101955, 0.871015718543, -2.0378425775, 0.615247305838
101956, 1.05018006564, -1.95156157535, 0.615247305838
101957, 1.22088898034, -1.84956774689, 0.615247305838
101958, 1.38176801484, -1.73268228646, 0.615247305838
101959, 1.53152186575, -1.60184628706, 0.615247305838
101960, 1.66894480312, -1.45811316323, 0.615247305838
101961, 1.79293037826, -1.30264016956, 0.615247305838
101962, 1.90248033222, -1.13667908319, 0.615247305838
101963, 1.99671263318, -0.961566125194, 0.615247305838
101964, 2.07486857807, -0.778711202152, 0.615247305838
101965, 2.13631890118, -0.589586554386, 0.615247305838
101966, 2.18056884062, -0.395714902355, 0.615247305838
101967, 2.20726212192, -0.198657186606, 0.615247305838
101968, 2.21618382645, -5.42808485878e-16, 0.615247305838
101969, 2.29423846918, 0, 0.162695563838
101970, 2.28574559971, 0.197223748259, 0.162695563838
101971, 2.26032986953, 0.392987320889, 0.162695563838
101972, 2.21817944782, 0.585841352889, 0.162695563838
101973, 2.15960640155, 0.77435802048, 0.162695563838
101974, 2.08504438506, 0.957141612211, 0.162695563838
101975, 1.99504542943, 1.13283886232, 0.162695563838
101976, 1.89027585546, 1.30014896984, 0.162695563838
101977, 1.77151134039, 1.45783322926, 0.162695563838
101978, 1.63963117516, 1.60472420151, 0.162695563838
101979, 1.49561175437, 1.73973435722, 0.162695563838
101980, 1.34051934741, 1.86186412842, 0.162695563838
101981, 1.17550220422, 1.97020930903, 0.162695563838
101982, 1.00178205397, 2.06396774922, 0.162695563838
101983, 0.820645059891, 2.14244529432, 0.162695563838
101984, 0.633432296906, 2.20506092404, 0.162695563838
101985, 0.441529822813, 2.25135105416, 0.162695563838
101986, 0.24635841639, 2.28097296875, 0.162695563838
101987, 0.0493630584449, 2.29370735752, 0.162695563838
101988, -0.147997766314, 2.28945993952, 0.162695563838
101989, -0.344262867391, 2.26826216113, 0.162695563838
101990, -0.537979166645, 2.2302709633, 0.162695563838
101991, -0.727712456371, 2.17576761956, 0.162695563838
101992, -0.912058017675, 2.1051556536, 0.162695563838
101993, -1.08965102052, 2.01895785171, 0.162695563838
101994, -1.25917662844, 1.91781239225, 0.162695563838
101995, -1.41937973315, 1.80246812083, 0.162695563838
101996, -1.56907424691, 1.67377900607, 0.162695563838
101997, -1.70715188392, 1.53269781715, 0.162695563838
101998, -1.83259036567, 1.38026906984, 0.162695563838
101999, -1.94446098951, 1.21762129325, 0.162695563838
102000, -2.04193550449, 1.04595867461, 0.162695563838
102001, -2.12429224341, 0.866552143888, 0.162695563838
102002, -2.19092146578, 0.680729964278, 0.162695563838
102003, -2.24132987216, 0.489867898178, 0.162695563838
102004, -2.27514425633, 0.295379021549, 0.162695563838
102005, -2.29211426843, 0.0987032619892, 0.162695563838
102006, -2.29211426843, -0.0987032619892, 0.162695563838
102007, -2.27514425633, -0.295379021549, 0.162695563838
102008, -2.24132987216, -0.489867898178, 0.162695563838
102009, -2.19092146578, -0.680729964278, 0.162695563838
102010, -2.12429224341, -0.866552143888, 0.162695563838
102011, -2.04193550449, -1.04595867461, 0.162695563838
102012, -1.94446098951, -1.21762129325, 0.162695563838
102013, -1.83259036567, -1.38026906984, 0.162695563838
102014, -1.70715188392, -1.53269781715, 0.162695563838
102015, -1.56907424691, -1.67377900607, 0.162695563838
102016, -1.41937973315, -1.80246812083, 0.162695563838
102017, -1.25917662844, -1.91781239225, 0.162695563838
102018, -1.08965102052, -2.01895785171, 0.162695563838
102019, -0.912058017675, -2.1051556536, 0.162695563838
102020, -0.727712456371, -2.17576761956, 0.162695563838
102021, -0.537979166645, -2.2302709633, 0.162695563838
102022, -0.344262867391, -2.26826216113, 0.162695563838
102023, -0.147997766314, -2.28945993952, 0.162695563838
102024, 0.0493630584449, -2.29370735752, 0.162695563838
102025, 0.24635841639, -2.28097296875, 0.162695563838
102026, 0.441529822813, -2.25135105416, 0.162695563838
102027, 0.633432296906, -2.20506092404, 0.162695563838
102028, 0.820645059891, -2.14244529432, 0.162695563838
102029, 1.00178205397, -2.06396774922, 0.162695563838
102030, 1.17550220422, -1.97020930903, 0.162695563838
102031, 1.34051934741, -1.86186412842, 0.162695563838
102032, 1.49561175437, -1.73973435722, 0.162695563838
102033, 1.63963117516, -1.60472420151, 0.162695563838
102034, 1.77151134039, -1.45783322926, 0.162695563838
102035, 1.89027585546, -1.30014896984, 0.162695563838
102036, 1.99504542943, -1.13283886232, 0.162695563838
102037, 2.08504438506, -0.957141612211, 0.162695563838
102038, 2.15960640155, -0.77435802048, 0.162695563838
102039, 2.21817944782, -0.585841352889, 0.162695563838
102040, 2.26032986953, -0.392987320889, 0.162695563838
102041, 2.28574559971, -0.197223748259, 0.162695563838
102042, 2.29423846918, -5.61926359554e-16, 0.162695563838
102043, 2.28082906404, 0, -0.296342336877
102044, 2.27214982085, 0.198787351157, -0.296342336877
102045, 2.24617814556, 0.39606181054, -0.296342336877
102046, 2.2031116983, 0.590322000396, -0.296342336877
102047, 2.14327824075, 0.780089483383, -0.296342336877
102048, 2.06713314164, 0.963920014371, -0.296342336877
102049, 1.97525591115, 1.14041453202, -0.296342336877
102050, 1.86834579048, 1.30822980648, -0.296342336877
102051, 1.74721643021, 1.46608866218, -0.296342336877
102052, 1.61278969791, 1.61278969791, -0.296342336877
102053, 1.46608866218, 1.74721643021, -0.296342336877
102054, 1.30822980648, 1.86834579048, -0.296342336877
102055, 1.14041453202, 1.97525591115, -0.296342336877
102056, 0.963920014371, 2.06713314164, -0.296342336877
102057, 0.780089483383, 2.14327824075, -0.296342336877
102058, 0.590322000396, 2.2031116983, -0.296342336877
102059, 0.39606181054, 2.24617814556, -0.296342336877
102060, 0.198787351157, 2.27214982085, -0.296342336877
102061, 1.39660500634e-16, 2.28082906404, -0.296342336877
102062, -0.198787351157, 2.27214982085, -0.296342336877
102063, -0.39606181054, 2.24617814556, -0.296342336877
102064, -0.590322000396, 2.2031116983, -0.296342336877
102065, -0.780089483383, 2.14327824075, -0.296342336877
102066, -0.963920014371, 2.06713314164, -0.296342336877
102067, -1.14041453202, 1.97525591115, -0.296342336877
102068, -1.30822980648, 1.86834579048, -0.296342336877
102069, -1.46608866218, 1.74721643021, -0.296342336877
102070, -1.61278969791, 1.61278969791, -0.296342336877
102071, -1.74721643021, 1.46608866218, -0.296342336877
102072, -1.86834579048, 1.30822980648, -0.296342336877
102073, -1.97525591115, 1.14041453202, -0.296342336877
102074, -2.06713314164, 0.963920014371, -0.296342336877
102075, -2.14327824075, 0.780089483383, -0.296342336877
102076, -2.2031116983, 0.590322000396, -0.296342336877
102077, -2.24617814556, 0.39606181054, -0.296342336877
102078, -2.27214982085, 0.198787351157, -0.296342336877
102079, -2.28082906404, 2.79321001267e-16, -0.296342336877
102080, -2.27214982085, -0.198787351157, -0.296342336877
102081, -2.24617814556, -0.39606181054, -0.296342336877
102082, -2.2031116983, -0.590322000396, -0.296342336877
102083, -2.14327824075, -0.780089483383, -0.296342336877
102084, -2.06713314164, -0.963920014371, -0.296342336877
102085, -1.97525591115, -1.14041453202, -0.296342336877
102086, -1.86834579048, -1.30822980648, -0.296342336877
102087, -1.74721643021, -1.46608866218, -0.296342336877
102088, -1.61278969791, -1.61278969791, -0.296342336877
102089, -1.46608866218, -1.74721643021, -0.296342336877
102090, -1.30822980648, -1.86834579048, -0.296342336877
102091, -1.14041453202, -1.97525591115, -0.296342336877
102092, -0.963920014371, -2.06713314164, -0.296342336877
102093, -0.780089483383, -2.14327824075, -0.296342336877
102094, -0.590322000396, -2.2031116983, -0.296342336877
102095, -0.39606181054, -2.24617814556, -0.296342336877
102096, -0.198787351157, -2.27214982085, -0.296342336877
102097, -4.18981501901e-16, -2.28082906404, -0.296342336877
102098, 0.198787351157, -2.27214982085, -0.296342336877
102099, 0.39606181054, -2.24617814556, -0.296342336877
102100, 0.590322000396, -2.2031116983, -0.296342336877
102101, 0.780089483383, -2.14327824075, -0.296342336877
102102, 0.963920014371, -2.06713314164, -0.296342336877
102103, 1.14041453202, -1.97525591115, -0.296342336877
102104, 1.30822980648, -1.86834579048, -0.296342336877
102105, 1.46608866218, -1.74721643021, -0.296342336877
102106, 1.61278969791, -1.61278969791, -0.296342336877
102107, 1.74721643021, -1.46608866218, -0.296342336877
102108, 1.86834579048, -1.30822980648, -0.296342336877
102109, 1.97525591115, -1.14041453202, -0.296342336877
102110, 2.06713314164, -0.963920014371, -0.296342336877
102111, 2.14327824075, -0.780089483383, -0.296342336877
102112, 2.2031116983, -0.590322000396, -0.296342336877
102113, 2.24617814556, -0.39606181054, -0.296342336877
102114, 2.27214982085, -0.198787351157, -0.296342336877
102115, 2.28082906404, -5.58642002535e-16, -0.296342336877
102116, 2.17649020168, 0, -0.743566003783
102117, 2.16747266004, 0.197918836806, -0.743566003783
102118, 2.14049475733, 0.394197655799, -0.743566003783
102119, 2.09578004094, 0.587210028868, -0.743566003783
102120, 2.03369903109, 0.775356594703, -0.743566003783
102121, 1.95476615058, 0.957078311607, -0.743566003783
102122, 1.85963546212, 1.1308693762, -0.743566003783
102123, 1.74909524855, 1.29528970099, -0.743566003783
102124, 1.6240614809, 1.44897684739, -0.743566003783
102125, 1.48557022834, 1.59065731529, -0.743566003783
102126, 1.33476907301, 1.71915709571, -0.743566003783
102127, 1.17290760077, 1.83341139902, -0.743566003783
102128, 1.00132704676, 1.93247347807, -0.743566003783
102129, 0.821449181481, 2.01552247327, -0.743566003783
102130, 0.634764529583, 2.08187021449, -0.743566003783
102131, 0.442820018881, 2.13096692346, -0.743566003783
102132, 0.247206162044, 2.16240576938, -0.743566003783
102133, 0.0495438770927, 2.17592624007, -0.743566003783
102134, -0.148528944027, 2.17141630066, -0.743566003783
102135, -0.345371007539, 2.14891332193, -0.743566003783
102136, -0.539351218113, 2.10860377063, -0.743566003783
102137, -0.728862194632, 2.05082166442, -0.743566003783
102138, -0.91233358946, 1.97604580401, -0.743566003783
102139, -1.08824510084, 1.88489580574, -0.743566003783
102140, -1.25513907058, 1.7781269672, -0.743566003783
102141, -1.4116325627, 1.65662400862, -0.743566003783
102142, -1.55642882283, 1.52139374176, -0.743566003783
102143, -1.68832802355, 1.37355672722, -0.743566003783
102144, -1.80623720655, 1.21433798906, -0.743566003783
102145, -1.90917933921, 1.04505686387, -0.743566003783
102146, -1.99630141059, 0.867116068388, -0.743566003783
102147, -2.06688149978, 0.681990076074, -0.743566003783
102148, -2.12033475792, 0.491212899206, -0.743566003783
102149, -2.15621825449, 0.296365377553, -0.743566003783
102150, -2.17423464752, 0.0990620790462, -0.743566003783
102151, -2.17423464752, -0.0990620790462, -0.743566003783
102152, -2.15621825449, -0.296365377553, -0.743566003783
102153, -2.12033475792, -0.491212899206, -0.743566003783
102154, -2.06688149978, -0.681990076074, -0.743566003783
102155, -1.99630141059, -0.867116068388, -0.743566003783
102156, -1.90917933921, -1.04505686387, -0.743566003783
102157, -1.80623720655, -1.21433798906, -0.743566003783
102158, -1.68832802355, -1.37355672722, -0.743566003783
102159, -1.55642882283, -1.52139374176, -0.743566003783
102160, -1.4116325627, -1.65662400862, -0.743566003783
102161, -1.25513907058, -1.7781269672, -0.743566003783
102162, -1.08824510084, -1.88489580574, -0.743566003783
102163, -0.91233358946, -1.97604580401, -0.743566003783
102164, -0.728862194632, -2.05082166442, -0.743566003783
102165, -0.539351218113, -2.10860377063, -0.743566003783
102166, -0.345371007539, -2.14891332193, -0.743566003783
102167, -0.148528944027, -2.17141630066, -0.743566003783
102168, 0.0495438770927, -2.17592624007, -0.743566003783
102169, 0.247206162044, -2.16240576938, -0.743566003783
102170, 0.442820018881, -2.13096692346, -0.743566003783
102171, 0.634764529583, -2.08187021449, -0.743566003783
102172, 0.821449181481, -2.01552247327, -0.743566003783
102173, 1.00132704676, -1.93247347807, -0.743566003783
102174, 1.17290760077, -1.83341139902, -0.743566003783
102175, 1.33476907301, -1.71915709571, -0.743566003783
102176, 1.48557022834, -1.59065731529, -0.743566003783
102177, 1.6240614809, -1.44897684739, -0.743566003783
102178, 1.74909524855, -1.29528970099, -0.743566003783
102179, 1.85963546212, -1.1308693762, -0.743566003783
102180, 1.95476615058, -0.957078311607, -0.743566003783
102181, 2.03369903109, -0.775356594703, -0.743566003783
102182, 2.09578004094, -0.587210028868, -0.743566003783
102183, 2.14049475733, -0.394197655799, -0.743566003783
102184, 2.16747266004, -0.197918836806, -0.743566003783
102185, 2.17649020168, -5.33086351772e-16, -0.743566003783
102186, 1.98538154329, 0, -1.16114604058
102187, 1.97551573642, 0.197680164936, -1.16114604058
102188, 1.94601636661, 0.393395695582, -1.16114604058
102189, 1.89717661188, 0.585201483065, -1.16114604058
102190, 1.82948186363, 0.771191275295, -1.16114604058
102191, 1.74360490269, 0.94951662216, -1.16114604058
102192, 1.64039921288, 1.11840524624, -1.16114604058
102193, 1.52089049871, 1.27617865653, -1.16114604058
102194, 1.38626649147, 1.42126882997, -1.16114604058
102195, 1.23786514504, 1.55223379525, -1.16114604058
102196, 1.07716133866, 1.66777196371, -1.16114604058
102197, 0.905752218961, 1.76673506511, -1.16114604058
102198, 0.725341326784, 1.84813955969, -1.16114604058
102199, 0.537721666627, 1.91117641302, -1.16114604058
102200, 0.344757886966, 1.95521913652, -1.16114604058
102201, 0.148367748535, 1.97983001382, -1.16114604058
102202, -0.0494969352382, 1.98476445097, -1.16114604058
102203, -0.246869696231, 1.96997340731, -1.16114604058
102204, -0.441788955272, 1.93560388288, -1.16114604058
102205, -0.632317517194, 1.88199745746, -1.16114604058
102206, -0.816561823549, 1.80968689578, -1.16114604058
102207, -0.992690771645, 1.71939085269, -1.16114604058
102208, -1.15895391287, 1.61200673084, -1.16114604058
102209, -1.31369884942, 1.48860176188, -1.16114604058
102210, -1.4553876566, 1.35040239982, -1.16114604058
102211, -1.5826121674, 1.19878213202, -1.16114604058
102212, -1.69410796745, 1.03524782881, -1.16114604058
102213, -1.78876696141, 0.861424767578, -1.16114604058
102214, -1.86564838567, 0.679040479992, -1.16114604058
102215, -1.9239881581, 0.489907583045, -1.16114604058
102216, -1.96320647182, 0.295905764436, -1.16114604058
102217, -1.98291355762, 0.0989631013997, -1.16114604058
102218, -1.98291355762, -0.0989631013997, -1.16114604058
102219, -1.96320647182, -0.295905764436, -1.16114604058
102220, -1.9239881581, -0.489907583045, -1.16114604058
102221, -1.86564838567, -0.679040479992, -1.16114604058
102222, -1.78876696141, -0.861424767578, -1.16114604058
102223, -1.69410796745, -1.03524782881, -1.16114604058
102224, -1.5826121674, -1.19878213202, -1.16114604058
102225, -1.4553876566, -1.35040239982, -1.16114604058
102226, -1.31369884942, -1.48860176188, -1.16114604058
102227, -1.15895391287, -1.61200673084, -1.16114604058
102228, -0.992690771645, -1.71939085269, -1.16114604058
102229, -0.816561823549, -1.80968689578, -1.16114604058
102230, -0.632317517194, -1.88199745746, -1.16114604058
102231, -0.441788955272, -1.93560388288, -1.16114604058
102232, -0.246869696231, -1.96997340731, -1.16114604058
102233, -0.0494969352382, -1.98476445097, -1.16114604058
102234, 0.148367748535, -1.97983001382, -1.16114604058
102235, 0.344757886966, -1.95521913652, -1.16114604058
102236, 0.537721666627, -1.91117641302, -1.16114604058
102237, 0.725341326784, -1.84813955969, -1.16114604058
102238, 0.905752218961, -1.76673506511, -1.16114604058
102239, 1.07716133866, -1.66777196371, -1.16114604058
102240, 1.23786514504, -1.55223379525, -1.16114604058
102241, 1.38626649147, -1.42126882997, -1.16114604058
102242, 1.52089049871, -1.27617865653, -1.16114604058
102243, 1.64039921288, -1.11840524624, -1.16114604058
102244, 1.74360490269, -0.94951662216, -1.16114604058
102245, 1.82948186363, -0.771191275295, -1.16114604058
102246, 1.89717661188, -0.585201483065, -1.16114604058
102247, 1.94601636661, -0.393395695582, -1.16114604058
102248, 1.97551573642, -0.197680164936, -1.16114604058
102249, 1.98538154329, -4.86278230415e-16, -1.16114604058
102250, 1.715121988, 0, -1.53243484894
102251, 1.70352494669, 0.199113509668, -1.53243484894
102252, 1.66889065285, 0.395534350693, -1.53243484894
102253, 1.61168747588, 0.586606268158, -1.53243484894
102254, 1.53268899062, 0.76974534216, -1.53243484894
102255, 1.43296351606, 0.942474930895, -1.53243484894
102256, 1.31385966818, 1.10245916299, -1.53243484894
102257, 1.17698812219, 1.24753452616, -1.53243484894
102258, 1.02419983096, 1.37573912498, -1.53243484894
102259, 0.857560994002, 1.4853392122, -1.53243484894
102260, 0.679325115738, 1.57485263465, -1.53243484894
102261, 0.491902530654, 1.64306887685, -1.53243484894
102262, 0.297827807694, 1.68906543115, -1.53243484894
102263, 0.0997254745531, 1.71222027306, -1.53243484894
102264, -0.0997254745531, 1.71222027306, -1.53243484894
102265, -0.297827807694, 1.68906543115, -1.53243484894
102266, -0.491902530654, 1.64306887685, -1.53243484894
102267, -0.679325115738, 1.57485263465, -1.53243484894
102268, -0.857560994002, 1.4853392122, -1.53243484894
102269, -1.02419983096, 1.37573912498, -1.53243484894
102270, -1.17698812219, 1.24753452616, -1.53243484894
102271, -1.31385966818, 1.10245916299, -1.53243484894
102272, -1.43296351606, 0.942474930895, -1.53243484894
102273, -1.53268899062, 0.76974534216, -1.53243484894
102274, -1.61168747588, 0.586606268158, -1.53243484894
102275, -1.66889065285, 0.395534350693, -1.53243484894
102276, -1.70352494669, 0.199113509668, -1.53243484894
102277, -1.715121988, 2.10041865276e-16, -1.53243484894
102278, -1.70352494669, -0.199113509668, -1.53243484894
102279, -1.66889065285, -0.395534350693, -1.53243484894
102280, -1.61168747588, -0.586606268158, -1.53243484894
102281, -1.53268899062, -0.76974534216, -1.53243484894
102282, -1.43296351606, -0.942474930895, -1.53243484894
102283, -1.31385966818, -1.10245916299, -1.53243484894
102284, -1.17698812219, -1.24753452616, -1.53243484894
102285, -1.02419983096, -1.37573912498, -1.53243484894
102286, -0.857560994002, -1.4853392122, -1.53243484894
102287, -0.679325115738, -1.57485263465, -1.53243484894
102288, -0.491902530654, -1.64306887685, -1.53243484894
102289, -0.297827807694, -1.68906543115, -1.53243484894
102290, -0.0997254745531, -1.71222027306, -1.53243484894
102291, 0.0997254745531, -1.71222027306, -1.53243484894
102292, 0.297827807694, -1.68906543115, -1.53243484894
102293, 0.491902530654, -1.64306887685, -1.53243484894
102294, 0.679325115738, -1.57485263465, -1.53243484894
102295, 0.857560994002, -1.4853392122, -1.53243484894
102296, 1.02419983096, -1.37573912498, -1.53243484894
102297, 1.17698812219, -1.24753452616, -1.53243484894
102298, 1.31385966818, -1.10245916299, -1.53243484894
102299, 1.43296351606, -0.942474930895, -1.53243484894
102300, 1.53268899062, -0.76974534216, -1.53243484894
102301, 1.61168747588, -0.586606268158, -1.53243484894
102302, 1.66889065285, -0.395534350693, -1.53243484894
102303, 1.70352494669, -0.199113509668, -1.53243484894
102304, 1.715121988, -4.20083730551e-16, -1.53243484894
102305, 1.37648593144, 0, -1.84263031575
102306, 1.36247528939, 0.195894372718, -1.84263031575
102307, 1.32072857949, 0.38780090092, -1.84263031575
102308, 1.25209564439, 0.571812921105, -1.84263031575
102309, 1.15797365271, 0.744184479189, -1.84263031575
102310, 1.04027865679, 0.901406587327, -1.84263031575
102311, 0.901406587327, 1.04027865679, -1.84263031575
102312, 0.744184479189, 1.15797365271, -1.84263031575
102313, 0.571812921105, 1.25209564439, -1.84263031575
102314, 0.38780090092, 1.32072857949, -1.84263031575
102315, 0.195894372718, 1.36247528939, -1.84263031575
102316, 8.42854545004e-17, 1.37648593144, -1.84263031575
102317, -0.195894372718, 1.36247528939, -1.84263031575
102318, -0.38780090092, 1.32072857949, -1.84263031575
102319, -0.571812921105, 1.25209564439, -1.84263031575
102320, -0.744184479189, 1.15797365271, -1.84263031575
102321, -0.901406587327, 1.04027865679, -1.84263031575
102322, -1.04027865679, 0.901406587327, -1.84263031575
102323, -1.15797365271, 0.744184479189, -1.84263031575
102324, -1.25209564439, 0.571812921105, -1.84263031575
102325, -1.32072857949, 0.38780090092, -1.84263031575
102326, -1.36247528939, 0.195894372718, -1.84263031575
102327, -1.37648593144, 1.68570909001e-16, -1.84263031575
102328, -1.36247528939, -0.195894372718, -1.84263031575
102329, -1.32072857949, -0.38780090092, -1.84263031575
102330, -1.25209564439, -0.571812921105, -1.84263031575
102331, -1.15797365271, -0.744184479189, -1.84263031575
102332, -1.04027865679, -0.901406587327, -1.84263031575
102333, -0.901406587327, -1.04027865679, -1.84263031575
102334, -0.744184479189, -1.15797365271, -1.84263031575
102335, -0.571812921105, -1.25209564439, -1.84263031575
102336, -0.38780090092, -1.32072857949, -1.84263031575
102337, -0.195894372718, -1.36247528939, -1.84263031575
102338, -2.52856363501e-16, -1.37648593144, -1.84263031575
102339, 0.195894372718, -1.36247528939, -1.84263031575
102340, 0.38780090092, -1.32072857949, -1.84263031575
102341, 0.571812921105, -1.25209564439, -1.84263031575
102342, 0.744184479189, -1.15797365271, -1.84263031575
102343, 0.901406587327, -1.04027865679, -1.84263031575
102344, 1.04027865679, -0.901406587327, -1.84263031575
102345, 1.15797365271, -0.744184479189, -1.84263031575
102346, 1.25209564439, -0.571812921105, -1.84263031575
102347, 1.32072857949, -0.38780090092, -1.84263031575
102348, 1.36247528939, -0.195894372718, -1.84263031575
102349, 1.37648593144, -3.37141818001e-16, -1.84263031575
*Element, type=T3D2, elset=EMBMESH_FIBERS_T0
100000, 100000,100001
100001, 100001,100002
100002, 100002,100003
100003, 100003,100004
100004, 100004,100005
100005, 100005,100006
100006, 100006,100007
100007, 100007,100008
100008, 100008,100009
100009, 100009,100010
100010, 100010,100011
100011, 100011,100012
100012, 100012,100013
100013, 100013,100014
100014, 100014,100015
100015, 100015,100016
100016, 100016,100017
100017, 100017,100018
100018, 100018,100019
100019, 100019,100020
100020, 100020,100021
100021, 100021,100022
100022, 100022,100023
100023, 100023,100024
100024, 100024,100025
100025, 100026,100027
100026, 100027,100028
100027, 100028,100029
100028, 100029,100030
100029, 100030,100031
100030, 100031,100032
100031, 100032,100033
100032, 100033,100034
100033, 100034,100035
100034, 100035,100036
100035, 100036,100037
100036, 100037,100038
100037, 100038,100039
100038, 100039,100040
100039, 100040,100041
100040, 100041,100042
100041, 100042,100043
100042, 100043,100044
100043, 100044,100045
100044, 100045,100046
100045, 100046,100047
100046, 100047,100048
100047, 100048,100049
100048, 100049,100050
100049, 100050,100051
100050, 100052,100053
100051, 100053,100054
100052, 100054,100055
100053, 100055,100056
100054, 100056,100057
100055, 100057,100058
100056, 100058,100059
100057, 100059,100060
100058, 100060,100061
100059, 100061,100062
100060, 100062,100063
100061, 100063,100064
100062, 100064,100065
100063, 100065,100066
100064, 100066,100067
100065, 100067,100068
100066, 100068,100069
100067, 100069,100070
100068, 100070,100071
100069, 100071,100072
100070, 100072,100073
100071, 100073,100074
100072, 100074,100075
100073, 100075,100076
100074, 100076,100077
100075, 100078,100079
100076, 100079,100080
100077, 100080,100081
100078, 100081,100082
100079, 100082,100083
100080, 100083,100084
100081, 100084,100085
100082, 100085,100086
100083, 100086,100087
100084, 100087,100088
100085, 100088,100089
100086, 100089,100090
100087, 100090,100091
100088, 100091,100092
100089, 100092,100093
100090, 100093,100094
100091, 100094,100095
100092, 100095,100096
100093, 100096,100097
100094, 100097,100098
100095, 100098,100099
100096, 100099,100100
100097, 100100,100101
100098, 100101,100102
100099, 100102,100103
100100, 100104,100105
100101, 100105,100106
100102, 100106,100107
100103, 100107,100108
100104, 100108,100109
100105, 100109,100110
100106, 100110,100111
100107, 100111,100112
100108, 100112,100113
100109, 100113,100114
100110, 100114,100115
100111, 100115,100116
100112, 100116,100117
100113, 100117,100118
100114, 100118,100119
100115, 100119,100120
100116, 100120,100121
100117, 100121,100122
100118, 100122,100123
100119, 100123,100124
100120, 100124,100125
100121, 100125,100126
100122, 100126,100127
100123, 100127,100128
100124, 100128,100129
100125, 100130,100131
100126, 100131,100132
100127, 100132,100133
100128, 100133,100134
100129, 100134,100135
100130, 100135,100136
100131, 100136,100137
100132, 100137,100138
100133, 100138,100139
100134, 100139,100140
100135, 100140,100141
100136, 100141,100142
100137, 100142,100143
100138, 100143,100144
100139, 100144,100145
100140, 100145,100146
100141, 100146,100147
100142, 100147,100148
100143, 100148,100149
100144, 100149,100150
100145, 100150,100151
100146, 100151,100152
100147, 100152,100153
100148, 100153,100154
100149, 100154,100155
100150, 100156,100157
100151, 100157,100158
100152, 100158,100159
100153, 100159,100160
100154, 100160,100161
100155, 100161,100162
100156, 100162,100163
100157, 100163,100164
100158, 100164,100165
100159, 100165,100166
100160, 100166,100167
100161, 100167,100168
100162, 100168,100169
100163, 100169,100170
100164, 100170,100171
100165, 100171,100172
100166, 100172,100173
100167, 100173,100174
100168, 100174,100175
100169, 100175,100176
100170, 100176,100177
100171, 100177,100178
100172, 100178,100179
100173, 100179,100180
100174, 100180,100181
100175, 100182,100183
100176, 100183,100184
100177, 100184,100185
100178, 100185,100186
100179, 100186,100187
100180, 100187,100188
100181, 100188,100189
100182, 100189,100190
100183, 100190,100191
100184, 100191,100192
100185, 100192,100193
100186, 100193,100194
100187, 100194,100195
100188, 100195,100196
100189, 100196,100197
100190, 100197,100198
100191, 100198,100199
100192, 100199,100200
100193, 100200,100201
100194, 100201,100202
100195, 100202,100203
100196, 100203,100204
100197, 100204,100205
100198, 100205,100206
100199, 100206,100207
100200, 100208,100209
100201, 100209,100210
100202, 100210,100211
100203, 100211,100212
100204, 100212,100213
100205, 100213,100214
100206, 100214,100215
100207, 100215,100216
100208, 100216,100217
100209, 100217,100218
100210, 100218,100219
100211, 100219,100220
100212, 100220,100221
100213, 100221,100222
100214, 100222,100223
100215, 100223,100224
100216, 100224,100225
100217, 100225,100226
100218, 100226,100227
100219, 100227,100228
100220, 100228,100229
100221, 100229,100230
100222, 100230,100231
100223, 100231,100232
100224, 100232,100233
100225, 100234,100235
100226, 100235,100236
100227, 100236,100237
100228, 100237,100238
100229, 100238,100239
100230, 100239,100240
100231, 100240,100241
100232, 100241,100242
100233, 100242,100243
100234, 100243,100244
100235, 100244,100245
100236, 100245,100246
100237, 100246,100247
100238, 100247,100248
100239, 100248,100249
100240, 100249,100250
100241, 100250,100251
100242, 100251,100252
100243, 100252,100253
100244, 100253,100254
100245, 100254,100255
100246, 100255,100256
100247, 100256,100257
100248, 100257,100258
100249, 100258,100259
100250, 100260,100261
100251, 100261,100262
100252, 100262,100263
100253, 100263,100264
100254, 100264,100265
100255, 100265,100266
100256, 100266,100267
100257, 100267,100268
100258, 100268,100269
100259, 100269,100270
100260, 100270,100271
100261, 100271,100272
100262, 100272,100273
100263, 100273,100274
100264, 100274,100275
100265, 100275,100276
100266, 100276,100277
100267, 100277,100278
100268, 100278,100279
100269, 100279,100280
100270, 100280,100281
100271, 100281,100282
100272, 100282,100283
100273, 100283,100284
100274, 100284,100285
100275, 100286,100287
100276, 100287,100288
100277, 100288,100289
100278, 100289,100290
100279, 100290,100291
100280, 100291,100292
100281, 100292,100293
100282, 100293,100294
100283, 100294,100295
100284, 100295,100296
100285, 100296,100297
100286, 100297,100298
100287, 100298,100299
100288, 100299,100300
100289, 100300,100301
100290, 100301,100302
100291, 100302,100303
100292, 100303,100304
100293, 100304,100305
100294, 100305,100306
100295, 100306,100307
100296, 100307,100308
100297, 100308,100309
100298, 100309,100310
100299, 100310,100311
100300, 100312,100313
100301, 100313,100314
100302, 100314,100315
100303, 100315,100316
100304, 100316,100317
100305, 100317,100318
100306, 100318,100319
100307, 100319,100320
100308, 100320,100321
100309, 100321,100322
100310, 100322,100323
100311, 100323,100324
100312, 100324,100325
100313, 100325,100326
100314, 100326,100327
100315, 100327,100328
100316, 100328,100329
100317, 100329,100330
100318, 100330,100331
100319, 100331,100332
100320, 100332,100333
100321, 100333,100334
100322, 100334,100335
100323, 100335,100336
100324, 100336,100337
100325, 100338,100339
100326, 100339,100340
100327, 100340,100341
100328, 100341,100342
100329, 100342,100343
100330, 100343,100344
100331, 100344,100345
100332, 100345,100346
100333, 100346,100347
100334, 100347,100348
100335, 100348,100349
100336, 100349,100350
100337, 100350,100351
100338, 100351,100352
100339, 100352,100353
100340, 100353,100354
100341, 100354,100355
100342, 100355,100356
100343, 100356,100357
100344, 100357,100358
100345, 100358,100359
100346, 100359,100360
100347, 100360,100361
100348, 100361,100362
100349, 100362,100363
100350, 100364,100365
100351, 100365,100366
100352, 100366,100367
100353, 100367,100368
100354, 100368,100369
100355, 100369,100370
100356, 100370,100371
100357, 100371,100372
100358, 100372,100373
100359, 100373,100374
100360, 100374,100375
100361, 100375,100376
100362, 100376,100377
100363, 100377,100378
100364, 100378,100379
100365, 100379,100380
100366, 100380,100381
100367, 100381,100382
100368, 100382,100383
100369, 100383,100384
100370, 100384,100385
100371, 100385,100386
100372, 100386,100387
100373, 100387,100388
100374, 100388,100389
100375, 100390,100391
100376, 100391,100392
100377, 100392,100393
100378, 100393,100394
100379, 100394,100395
100380, 100395,100396
100381, 100396,100397
100382, 100397,100398
100383, 100398,100399
100384, 100399,100400
100385, 100400,100401
100386, 100401,100402
100387, 100402,100403
100388, 100403,100404
100389, 100404,100405
100390, 100405,100406
100391, 100406,100407
100392, 100407,100408
100393, 100408,100409
100394, 100409,100410
100395, 100410,100411
100396, 100411,100412
100397, 100412,100413
100398, 100413,100414
100399, 100414,100415
100400, 100416,100417
100401, 100417,100418
100402, 100418,100419
100403, 100419,100420
100404, 100420,100421
100405, 100421,100422
100406, 100422,100423
100407, 100423,100424
100408, 100424,100425
100409, 100425,100426
100410, 100426,100427
100411, 100427,100428
100412, 100428,100429
100413, 100429,100430
100414, 100430,100431
100415, 100431,100432
100416, 100432,100433
100417, 100433,100434
100418, 100434,100435
100419, 100435,100436
100420, 100436,100437
100421, 100437,100438
100422, 100438,100439
100423, 100439,100440
100424, 100440,100441
100425, 100442,100443
100426, 100443,100444
100427, 100444,100445
100428, 100445,100446
100429, 100446,100447
100430, 100447,100448
100431, 100448,100449
100432, 100449,100450
100433, 100450,100451
100434, 100451,100452
100435, 100452,100453
100436, 100453,100454
100437, 100454,100455
100438, 100455,100456
100439, 100456,100457
100440, 100457,100458
100441, 100458,100459
100442, 100459,100460
100443, 100460,100461
100444, 100461,100462
100445, 100462,100463
100446, 100463,100464
100447, 100464,100465
100448, 100465,100466
100449, 100466,100467
100450, 100468,100469
100451, 100469,100470
100452, 100470,100471
100453, 100471,100472
100454, 100472,100473
100455, 100473,100474
100456, 100474,100475
100457, 100475,100476
100458, 100476,100477
100459, 100477,100478
100460, 100478,100479
100461, 100479,100480
100462, 100480,100481
100463, 100481,100482
100464, 100482,100483
100465, 100483,100484
100466, 100484,100485
100467, 100485,100486
100468, 100486,100487
100469, 100487,100488
100470, 100488,100489
100471, 100489,100490
100472, 100490,100491
100473, 100491,100492
100474, 100492,100493
100475, 100494,100495
100476, 100495,100496
100477, 100496,100497
100478, 100497,100498
100479, 100498,100499
100480, 100499,100500
100481, 100500,100501
100482, 100501,100502
100483, 100502,100503
100484, 100503,100504
100485, 100504,100505
100486, 100505,100506
100487, 100506,100507
100488, 100507,100508
100489, 100508,100509
100490, 100509,100510
100491, 100510,100511
100492, 100511,100512
100493, 100512,100513
100494, 100513,100514
100495, 100514,100515
100496, 100515,100516
100497, 100516,100517
100498, 100517,100518
100499, 100518,100519
100500, 100520,100521
100501, 100521,100522
100502, 100522,100523
100503, 100523,100524
100504, 100524,100525
100505, 100525,100526
100506, 100526,100527
100507, 100527,100528
100508, 100528,100529
100509, 100529,100530
100510, 100530,100531
100511, 100531,100532
100512, 100532,100533
100513, 100533,100534
100514, 100534,100535
100515, 100535,100536
100516, 100536,100537
100517, 100537,100538
100518, 100538,100539
100519, 100539,100540
100520, 100540,100541
100521, 100541,100542
100522, 100542,100543
100523, 100543,100544
100524, 100544,100545
100525, 100546,100547
100526, 100547,100548
100527, 100548,100549
100528, 100549,100550
100529, 100550,100551
100530, 100551,100552
100531, 100552,100553
100532, 100553,100554
100533, 100554,100555
100534, 100555,100556
100535, 100556,100557
100536, 100557,100558
100537, 100558,100559
100538, 100559,100560
100539, 100560,100561
100540, 100561,100562
100541, 100562,100563
100542, 100563,100564
100543, 100564,100565
100544, 100565,100566
100545, 100566,100567
100546, 100567,100568
100547, 100568,100569
100548, 100569,100570
100549, 100570,100571
100550, 100572,100573
100551, 100573,100574
100552, 100574,100575
100553, 100575,100576
100554, 100576,100577
100555, 100577,100578
100556, 100578,100579
100557, 100579,100580
100558, 100580,100581
100559, 100581,100582
100560, 100582,100583
100561, 100583,100584
100562, 100584,100585
100563, 100585,100586
100564, 100586,100587
100565, 100587,100588
100566, 100588,100589
100567, 100589,100590
100568, 100590,100591
100569, 100591,100592
100570, 100592,100593
100571, 100593,100594
100572, 100594,100595
100573, 100595,100596
100574, 100596,100597
100575, 100598,100599
100576, 100599,100600
100577, 100600,100601
100578, 100601,100602
100579, 100602,100603
100580, 100603,100604
100581, 100604,100605
100582, 100605,100606
100583, 100606,100607
100584, 100607,100608
100585, 100608,100609
100586, 100609,100610
100587, 100610,100611
100588, 100611,100612
100589, 100612,100613
100590, 100613,100614
100591, 100614,100615
100592, 100615,100616
100593, 100616,100617
100594, 100617,100618
100595, 100618,100619
100596, 100619,100620
100597, 100620,100621
100598, 100621,100622
100599, 100622,100623
100600, 100624,100625
100601, 100625,100626
100602, 100626,100627
100603, 100627,100628
100604, 100628,100629
100605, 100629,100630
100606, 100630,100631
100607, 100631,100632
100608, 100632,100633
100609, 100633,100634
100610, 100634,100635
100611, 100635,100636
100612, 100636,100637
100613, 100637,100638
100614, 100638,100639
100615, 100639,100640
100616, 100640,100641
100617, 100641,100642
100618, 100642,100643
100619, 100643,100644
100620, 100644,100645
100621, 100645,100646
100622, 100646,100647
100623, 100647,100648
100624, 100648,100649
100625, 100650,100651
100626, 100651,100652
100627, 100652,100653
100628, 100653,100654
100629, 100654,100655
100630, 100655,100656
100631, 100656,100657
100632, 100657,100658
100633, 100658,100659
100634, 100659,100660
100635, 100660,100661
100636, 100661,100662
100637, 100662,100663
100638, 100663,100664
100639, 100664,100665
100640, 100665,100666
100641, 100666,100667
100642, 100667,100668
100643, 100668,100669
100644, 100669,100670
100645, 100670,100671
100646, 100671,100672
100647, 100672,100673
100648, 100673,100674
100649, 100674,100675
100650, 100676,100677
100651, 100677,100678
100652, 100678,100679
100653, 100679,100680
100654, 100680,100681
100655, 100681,100682
100656, 100682,100683
100657, 100683,100684
100658, 100684,100685
100659, 100685,100686
100660, 100686,100687
100661, 100687,100688
100662, 100688,100689
100663, 100689,100690
100664, 100690,100691
100665, 100691,100692
100666, 100692,100693
100667, 100693,100694
100668, 100694,100695
100669, 100695,100696
100670, 100696,100697
100671, 100697,100698
100672, 100698,100699
100673, 100699,100700
100674, 100700,100701
100675, 100702,100703
100676, 100703,100704
100677, 100704,100705
100678, 100705,100706
100679, 100706,100707
100680, 100707,100708
100681, 100708,100709
100682, 100709,100710
100683, 100710,100711
100684, 100711,100712
100685, 100712,100713
100686, 100713,100714
100687, 100714,100715
100688, 100715,100716
100689, 100716,100717
100690, 100717,100718
100691, 100718,100719
100692, 100719,100720
100693, 100720,100721
100694, 100721,100722
100695, 100722,100723
100696, 100723,100724
100697, 100724,100725
100698, 100725,100726
100699, 100726,100727
100700, 100728,100729
100701, 100729,100730
100702, 100730,100731
100703, 100731,100732
100704, 100732,100733
100705, 100733,100734
100706, 100734,100735
100707, 100735,100736
100708, 100736,100737
100709, 100737,100738
100710, 100738,100739
100711, 100739,100740
100712, 100740,100741
100713, 100741,100742
100714, 100742,100743
100715, 100743,100744
100716, 100744,100745
100717, 100745,100746
100718, 100746,100747
100719, 100747,100748
100720, 100748,100749
100721, 100749,100750
100722, 100750,100751
100723, 100751,100752
100724, 100752,100753
100725, 100754,100755
100726, 100755,100756
100727, 100756,100757
100728, 100757,100758
100729, 100758,100759
100730, 100759,100760
100731, 100760,100761
100732, 100761,100762
100733, 100762,100763
100734, 100763,100764
100735, 100764,100765
100736, 100765,100766
100737, 100766,100767
100738, 100767,100768
100739, 100768,100769
100740, 100769,100770
100741, 100770,100771
100742, 100771,100772
100743, 100772,100773
100744, 100773,100774
100745, 100774,100775
100746, 100775,100776
100747, 100776,100777
100748, 100777,100778
100749, 100778,100779
100750, 100780,100781
100751, 100781,100782
100752, 100782,100783
100753, 100783,100784
100754, 100784,100785
100755, 100785,100786
100756, 100786,100787
100757, 100787,100788
100758, 100788,100789
100759, 100789,100790
100760, 100790,100791
100761, 100791,100792
100762, 100792,100793
100763, 100793,100794
100764, 100794,100795
100765, 100795,100796
100766, 100796,100797
100767, 100797,100798
100768, 100798,100799
100769, 100799,100800
100770, 100800,100801
100771, 100801,100802
100772, 100802,100803
100773, 100803,100804
100774, 100804,100805
100775, 100806,100807
100776, 100807,100808
100777, 100808,100809
100778, 100809,100810
100779, 100810,100811
100780, 100811,100812
100781, 100812,100813
100782, 100813,100814
100783, 100814,100815
100784, 100815,100816
100785, 100816,100817
100786, 100817,100818
100787, 100818,100819
100788, 100819,100820
100789, 100820,100821
100790, 100821,100822
100791, 100822,100823
100792, 100823,100824
100793, 100824,100825
100794, 100825,100826
100795, 100826,100827
100796, 100827,100828
100797, 100828,100829
100798, 100829,100830
100799, 100830,100831
100800, 100832,100833
100801, 100833,100834
100802, 100834,100835
100803, 100835,100836
100804, 100836,100837
100805, 100837,100838
100806, 100838,100839
100807, 100839,100840
100808, 100840,100841
100809, 100841,100842
100810, 100842,100843
100811, 100843,100844
100812, 100844,100845
100813, 100845,100846
100814, 100846,100847
100815, 100847,100848
100816, 100848,100849
100817, 100849,100850
100818, 100850,100851
100819, 100851,100852
100820, 100852,100853
100821, 100853,100854
100822, 100854,100855
100823, 100855,100856
100824, 100856,100857
100825, 100858,100859
100826, 100859,100860
100827, 100860,100861
100828, 100861,100862
100829, 100862,100863
100830, 100863,100864
100831, 100864,100865
100832, 100865,100866
100833, 100866,100867
100834, 100867,100868
100835, 100868,100869
100836, 100869,100870
100837, 100870,100871
100838, 100871,100872
100839, 100872,100873
100840, 100873,100874
100841, 100874,100875
100842, 100875,100876
100843, 100876,100877
100844, 100877,100878
100845, 100878,100879
100846, 100879,100880
100847, 100880,100881
100848, 100881,100882
100849, 100882,100883
100850, 100884,100885
100851, 100885,100886
100852, 100886,100887
100853, 100887,100888
100854, 100888,100889
100855, 100889,100890
100856, 100890,100891
100857, 100891,100892
100858, 100892,100893
100859, 100893,100894
100860, 100894,100895
100861, 100895,100896
100862, 100896,100897
100863, 100897,100898
100864, 100898,100899
100865, 100899,100900
100866, 100900,100901
100867, 100901,100902
100868, 100902,100903
100869, 100903,100904
100870, 100904,100905
100871, 100905,100906
100872, 100906,100907
100873, 100907,100908
100874, 100908,100909
100875, 100910,100911
100876, 100911,100912
100877, 100912,100913
100878, 100913,100914
100879, 100914,100915
100880, 100915,100916
100881, 100916,100917
100882, 100917,100918
100883, 100918,100919
100884, 100919,100920
100885, 100920,100921
100886, 100921,100922
100887, 100922,100923
100888, 100923,100924
100889, 100924,100925
100890, 100925,100926
100891, 100926,100927
100892, 100927,100928
100893, 100928,100929
100894, 100929,100930
100895, 100930,100931
100896, 100931,100932
100897, 100932,100933
100898, 100933,100934
100899, 100934,100935
100900, 100936,100937
100901, 100937,100938
100902, 100938,100939
100903, 100939,100940
100904, 100940,100941
100905, 100941,100942
100906, 100942,100943
100907, 100943,100944
100908, 100944,100945
100909, 100945,100946
100910, 100946,100947
100911, 100947,100948
100912, 100948,100949
100913, 100949,100950
100914, 100950,100951
100915, 100951,100952
100916, 100952,100953
100917, 100953,100954
100918, 100954,100955
100919, 100955,100956
100920, 100956,100957
100921, 100957,100958
100922, 100958,100959
100923, 100959,100960
100924, 100960,100961
100925, 100962,100963
100926, 100963,100964
100927, 100964,100965
100928, 100965,100966
100929, 100966,100967
100930, 100967,100968
100931, 100968,100969
100932, 100969,100970
100933, 100970,100971
100934, 100971,100972
100935, 100972,100973
100936, 100973,100974
100937, 100974,100975
100938, 100975,100976
100939, 100976,100977
100940, 100977,100978
100941, 100978,100979
100942, 100979,100980
100943, 100980,100981
100944, 100981,100982
100945, 100982,100983
100946, 100983,100984
100947, 100984,100985
100948, 100985,100986
100949, 100986,100987
100950, 100988,100989
100951, 100989,100990
100952, 100990,100991
100953, 100991,100992
100954, 100992,100993
100955, 100993,100994
100956, 100994,100995
100957, 100995,100996
100958, 100996,100997
100959, 100997,100998
100960, 100998,100999
100961, 100999,101000
100962, 101000,101001
100963, 101001,101002
100964, 101002,101003
100965, 101003,101004
100966, 101004,101005
100967, 101005,101006
100968, 101006,101007
100969, 101007,101008
100970, 101008,101009
100971, 101009,101010
100972, 101010,101011
100973, 101011,101012
100974, 101012,101013
100975, 101014,101015
100976, 101015,101016
100977, 101016,101017
100978, 101017,101018
100979, 101018,101019
100980, 101019,101020
100981, 101020,101021
100982, 101021,101022
100983, 101022,101023
100984, 101023,101024
100985, 101024,101025
100986, 101025,101026
100987, 101026,101027
100988, 101027,101028
100989, 101028,101029
100990, 101029,101030
100991, 101030,101031
100992, 101031,101032
100993, 101032,101033
100994, 101033,101034
100995, 101034,101035
100996, 101035,101036
100997, 101036,101037
100998, 101037,101038
100999, 101038,101039
101000, 101040,101041
101001, 101041,101042
101002, 101042,101043
101003, 101043,101044
101004, 101044,101045
101005, 101045,101046
101006, 101046,101047
101007, 101047,101048
101008, 101048,101049
101009, 101049,101050
101010, 101050,101051
101011, 101051,101052
101012, 101052,101053
101013, 101053,101054
101014, 101054,101055
101015, 101055,101056
101016, 101056,101057
101017, 101057,101058
101018, 101058,101059
101019, 101059,101060
101020, 101060,101061
101021, 101061,101062
101022, 101062,101063
101023, 101063,101064
101024, 101064,101065
101025, 101066,101067
101026, 101067,101068
101027, 101068,101069
101028, 101069,101070
101029, 101070,101071
101030, 101071,101072
101031, 101072,101073
101032, 101073,101074
101033, 101074,101075
101034, 101075,101076
101035, 101076,101077
101036, 101077,101078
101037, 101078,101079
101038, 101079,101080
101039, 101080,101081
101040, 101081,101082
101041, 101082,101083
101042, 101083,101084
101043, 101084,101085
101044, 101085,101086
101045, 101086,101087
101046, 101087,101088
101047, 101088,101089
101048, 101089,101090
101049, 101090,101091
101050, 101092,101093
101051, 101093,101094
101052, 101094,101095
101053, 101095,101096
101054, 101096,101097
101055, 101097,101098
101056, 101098,101099
101057, 101099,101100
101058, 101100,101101
101059, 101101,101102
101060, 101102,101103
101061, 101103,101104
101062, 101104,101105
101063, 101105,101106
101064, 101106,101107
101065, 101107,101108
101066, 101108,101109
101067, 101109,101110
101068, 101110,101111
101069, 101111,101112
101070, 101112,101113
101071, 101113,101114
101072, 101114,101115
101073, 101115,101116
101074, 101116,101117
101075, 101118,101119
101076, 101119,101120
101077, 101120,101121
101078, 101121,101122
101079, 101122,101123
101080, 101123,101124
101081, 101124,101125
101082, 101125,101126
101083, 101126,101127
101084, 101127,101128
101085, 101128,101129
101086, 101129,101130
101087, 101130,101131
101088, 101131,101132
101089, 101132,101133
101090, 101133,101134
101091, 101134,101135
101092, 101135,101136
101093, 101136,101137
101094, 101137,101138
101095, 101138,101139
101096, 101139,101140
101097, 101140,101141
101098, 101141,101142
101099, 101142,101143
101100, 101144,101145
101101, 101145,101146
101102, 101146,101147
101103, 101147,101148
101104, 101148,101149
101105, 101149,101150
101106, 101150,101151
101107, 101151,101152
101108, 101152,101153
101109, 101153,101154
101110, 101154,101155
101111, 101155,101156
101112, 101156,101157
101113, 101157,101158
101114, 101158,101159
101115, 101159,101160
101116, 101160,101161
101117, 101161,101162
101118, 101162,101163
101119, 101163,101164
101120, 101164,101165
101121, 101165,101166
101122, 101166,101167
101123, 101167,101168
101124, 101168,101169
101125, 101170,101171
101126, 101171,101172
101127, 101172,101173
101128, 101173,101174
101129, 101174,101175
101130, 101175,101176
101131, 101176,101177
101132, 101177,101178
101133, 101178,101179
101134, 101179,101180
101135, 101180,101181
101136, 101181,101182
101137, 101182,101183
101138, 101183,101184
101139, 101184,101185
101140, 101185,101186
101141, 101186,101187
101142, 101187,101188
101143, 101188,101189
101144, 101189,101190
101145, 101190,101191
101146, 101191,101192
101147, 101192,101193
101148, 101193,101194
101149, 101194,101195
101150, 101196,101197
101151, 101197,101198
101152, 101198,101199
101153, 101199,101200
101154, 101200,101201
101155, 101201,101202
101156, 101202,101203
101157, 101203,101204
101158, 101204,101205
101159, 101205,101206
101160, 101206,101207
101161, 101207,101208
101162, 101208,101209
101163, 101209,101210
101164, 101210,101211
101165, 101211,101212
101166, 101212,101213
101167, 101213,101214
101168, 101214,101215
101169, 101215,101216
101170, 101216,101217
101171, 101217,101218
101172, 101218,101219
101173, 101219,101220
101174, 101220,101221
101175, 101222,101223
101176, 101223,101224
101177, 101224,101225
101178, 101225,101226
101179, 101226,101227
101180, 101227,101228
101181, 101228,101229
101182, 101229,101230
101183, 101230,101231
101184, 101231,101232
101185, 101232,101233
101186, 101233,101234
101187, 101234,101235
101188, 101235,101236
101189, 101236,101237
101190, 101237,101238
101191, 101238,101239
101192, 101239,101240
101193, 101240,101241
101194, 101241,101242
101195, 101242,101243
101196, 101243,101244
101197, 101244,101245
101198, 101245,101246
101199, 101246,101247
101200, 101248,101249
101201, 101249,101250
101202, 101250,101251
101203, 101251,101252
101204, 101252,101253
101205, 101253,101254
101206, 101254,101255
101207, 101255,101256
101208, 101256,101257
101209, 101257,101258
101210, 101258,101259
101211, 101259,101260
101212, 101260,101261
101213, 101261,101262
101214, 101262,101263
101215, 101263,101264
101216, 101264,101265
101217, 101265,101266
101218, 101266,101267
101219, 101267,101268
101220, 101268,101269
101221, 101269,101270
101222, 101270,101271
101223, 101271,101272
101224, 101272,101273
101225, 101274,101275
101226, 101275,101276
101227, 101276,101277
101228, 101277,101278
101229, 101278,101279
101230, 101279,101280
101231, 101280,101281
101232, 101281,101282
101233, 101282,101283
101234, 101283,101284
101235, 101284,101285
101236, 101285,101286
101237, 101286,101287
101238, 101287,101288
101239, 101288,101289
101240, 101289,101290
101241, 101290,101291
101242, 101291,101292
101243, 101292,101293
101244, 101293,101294
101245, 101294,101295
101246, 101295,101296
101247, 101296,101297
101248, 101297,101298
101249, 101298,101299
101250, 101300,101301
101251, 101301,101302
101252, 101302,101303
101253, 101303,101304
101254, 101304,101305
101255, 101305,101306
101256, 101306,101307
101257, 101307,101308
101258, 101308,101309
101259, 101309,101310
101260, 101310,101311
101261, 101311,101312
101262, 101312,101313
101263, 101313,101314
101264, 101314,101315
101265, 101315,101316
101266, 101316,101317
101267, 101317,101318
101268, 101318,101319
101269, 101319,101320
101270, 101320,101321
101271, 101321,101322
101272, 101322,101323
101273, 101323,101324
101274, 101324,101325
101275, 101326,101327
101276, 101327,101328
101277, 101328,101329
101278, 101329,101330
101279, 101330,101331
101280, 101331,101332
101281, 101332,101333
101282, 101333,101334
101283, 101334,101335
101284, 101335,101336
101285, 101336,101337
101286, 101337,101338
101287, 101338,101339
101288, 101339,101340
101289, 101340,101341
101290, 101341,101342
101291, 101342,101343
101292, 101343,101344
101293, 101344,101345
101294, 101345,101346
101295, 101346,101347
101296, 101347,101348
101297, 101348,101349
101298, 101349,101350
101299, 101350,101351
101300, 101352,101353
101301, 101353,101354
101302, 101354,101355
101303, 101355,101356
101304, 101356,101357
101305, 101357,101358
101306, 101358,101359
101307, 101359,101360
101308, 101360,101361
101309, 101361,101362
101310, 101362,101363
101311, 101363,101364
101312, 101364,101365
101313, 101365,101366
101314, 101366,101367
101315, 101367,101368
101316, 101368,101369
101317, 101369,101370
101318, 101370,101371
101319, 101371,101372
101320, 101372,101373
101321, 101373,101374
101322, 101374,101375
101323, 101375,101376
101324, 101376,101377
101325, 101378,101379
101326, 101379,101380
101327, 101380,101381
101328, 101381,101382
101329, 101382,101383
101330, 101383,101384
101331, 101384,101385
101332, 101385,101386
101333, 101386,101387
101334, 101387,101388
101335, 101388,101389
101336, 101389,101390
101337, 101390,101391
101338, 101391,101392
101339, 101392,101393
101340, 101393,101394
101341, 101394,101395
101342, 101395,101396
101343, 101396,101397
101344, 101397,101398
101345, 101398,101399
101346, 101399,101400
101347, 101400,101401
101348, 101401,101402
101349, 101402,101403
101350, 101404,101405
101351, 101405,101406
101352, 101406,101407
101353, 101407,101408
101354, 101408,101409
101355, 101409,101410
101356, 101410,101411
101357, 101411,101412
101358, 101412,101413
101359, 101413,101414
101360, 101414,101415
101361, 101415,101416
101362, 101416,101417
101363, 101417,101418
101364, 101418,101419
101365, 101419,101420
101366, 101420,101421
101367, 101421,101422
101368, 101422,101423
101369, 101423,101424
101370, 101424,101425
101371, 101425,101426
101372, 101426,101427
101373, 101427,101428
101374, 101428,101429
101375, 101430,101431
101376, 101431,101432
101377, 101432,101433
101378, 101433,101434
101379, 101434,101435
101380, 101435,101436
101381, 101436,101437
101382, 101437,101438
101383, 101438,101439
101384, 101439,101440
101385, 101440,101441
101386, 101441,101442
101387, 101442,101443
101388, 101443,101444
101389, 101444,101445
101390, 101445,101446
101391, 101446,101447
101392, 101447,101448
101393, 101448,101449
101394, 101449,101450
101395, 101450,101451
101396, 101451,101452
101397, 101452,101453
101398, 101453,101454
101399, 101454,101455
101400, 101456,101457
101401, 101457,101458
101402, 101458,101459
101403, 101459,101460
101404, 101460,101461
101405, 101461,101462
101406, 101462,101463
101407, 101463,101464
101408, 101464,101465
101409, 101465,101466
101410, 101466,101467
101411, 101467,101468
101412, 101468,101469
101413, 101469,101470
101414, 101470,101471
101415, 101471,101472
101416, 101472,101473
101417, 101473,101474
101418, 101474,101475
101419, 101475,101476
101420, 101476,101477
101421, 101477,101478
101422, 101478,101479
101423, 101479,101480
101424, 101480,101481
101425, 101482,101483
101426, 101483,101484
101427, 101484,101485
101428, 101485,101486
101429, 101486,101487
101430, 101487,101488
101431, 101488,101489
101432, 101489,101490
101433, 101490,101491
101434, 101491,101492
101435, 101492,101493
101436, 101493,101494
101437, 101494,101495
101438, 101495,101496
101439, 101496,101497
101440, 101497,101498
101441, 101498,101499
101442, 101499,101500
101443, 101500,101501
101444, 101501,101502
101445, 101502,101503
101446, 101503,101504
101447, 101504,101505
101448, 101505,101506
101449, 101506,101507
101450, 101508,101509
101451, 101509,101510
101452, 101510,101511
101453, 101511,101512
101454, 101512,101513
101455, 101513,101514
101456, 101514,101515
101457, 101515,101516
101458, 101516,101517
101459, 101517,101518
101460, 101518,101519
101461, 101519,101520
101462, 101520,101521
101463, 101521,101522
101464, 101522,101523
101465, 101523,101524
101466, 101524,101525
101467, 101525,101526
101468, 101526,101527
101469, 101527,101528
101470, 101528,101529
101471, 101529,101530
101472, 101530,101531
101473, 101531,101532
101474, 101532,101533
101475, 101534,101535
101476, 101535,101536
101477, 101536,101537
101478, 101537,101538
101479, 101538,101539
101480, 101539,101540
101481, 101540,101541
101482, 101541,101542
101483, 101542,101543
101484, 101543,101544
101485, 101544,101545
101486, 101545,101546
101487, 101546,101547
101488, 101547,101548
101489, 101548,101549
101490, 101549,101550
101491, 101550,101551
101492, 101551,101552
101493, 101552,101553
101494, 101553,101554
101495, 101554,101555
101496, 101555,101556
101497, 101556,101557
101498, 101557,101558
101499, 101558,101559
101500, 101560,101561
101501, 101561,101562
101502, 101562,101563
101503, 101563,101564
101504, 101564,101565
101505, 101565,101566
101506, 101566,101567
101507, 101567,101568
101508, 101568,101569
101509, 101569,101570
101510, 101570,101571
101511, 101571,101572
101512, 101572,101573
101513, 101573,101574
101514, 101574,101575
101515, 101575,101576
101516, 101576,101577
101517, 101577,101578
101518, 101578,101579
101519, 101579,101580
101520, 101580,101581
101521, 101581,101582
101522, 101582,101583
101523, 101583,101584
101524, 101584,101585
101525, 101586,101587
101526, 101587,101588
101527, 101588,101589
101528, 101589,101590
101529, 101590,101591
101530, 101591,101592
101531, 101592,101593
101532, 101593,101594
101533, 101594,101595
101534, 101595,101596
101535, 101596,101597
101536, 101597,101598
101537, 101598,101599
101538, 101599,101600
101539, 101600,101601
101540, 101601,101602
101541, 101602,101603
101542, 101603,101604
101543, 101604,101605
101544, 101605,101606
101545, 101606,101607
101546, 101607,101608
101547, 101608,101609
101548, 101609,101610
101549, 101610,101611
101550, 101612,101613
101551, 101613,101614
101552, 101614,101615
101553, 101615,101616
101554, 101616,101617
101555, 101617,101618
101556, 101618,101619
101557, 101619,101620
101558, 101620,101621
101559, 101621,101622
101560, 101622,101623
101561, 101623,101624
101562, 101624,101625
101563, 101625,101626
101564, 101626,101627
101565, 101627,101628
101566, 101628,101629
101567, 101629,101630
101568, 101630,101631
101569, 101631,101632
101570, 101632,101633
101571, 101633,101634
101572, 101634,101635
101573, 101635,101636
101574, 101636,101637
101575, 101638,101639
101576, 101639,101640
101577, 101640,101641
101578, 101641,101642
101579, 101642,101643
101580, 101643,101644
101581, 101644,101645
101582, 101645,101646
101583, 101646,101647
101584, 101647,101648
101585, 101648,101649
101586, 101649,101650
101587, 101650,101651
101588, 101651,101652
101589, 101652,101653
101590, 101653,101654
101591, 101654,101655
101592, 101655,101656
101593, 101656,101657
101594, 101657,101658
101595, 101658,101659
101596, 101659,101660
101597, 101660,101661
101598, 101661,101662
101599, 101662,101663
101600, 101664,101665
101601, 101665,101666
101602, 101666,101667
101603, 101667,101668
101604, 101668,101669
101605, 101669,101670
101606, 101670,101671
101607, 101671,101672
101608, 101672,101673
101609, 101673,101674
101610, 101674,101675
101611, 101675,101676
101612, 101676,101677
101613, 101677,101678
101614, 101678,101679
101615, 101679,101680
101616, 101680,101681
101617, 101681,101682
101618, 101682,101683
101619, 101683,101684
101620, 101684,101685
101621, 101685,101686
101622, 101686,101687
101623, 101687,101688
101624, 101688,101689
*Element, type=T3D2, elset=EMBMESH_FIBERS_T90
101625, 101690,101691
101626, 101691,101692
101627, 101692,101693
101628, 101693,101694
101629, 101694,101695
101630, 101695,101696
101631, 101696,101697
101632, 101697,101698
101633, 101698,101699
101634, 101699,101700
101635, 101700,101701
101636, 101701,101702
101637, 101702,101703
101638, 101703,101704
101639, 101704,101705
101640, 101705,101706
101641, 101706,101707
101642, 101707,101708
101643, 101708,101709
101644, 101709,101710
101645, 101710,101711
101646, 101711,101712
101647, 101712,101713
101648, 101713,101714
101649, 101714,101715
101650, 101715,101716
101651, 101716,101717
101652, 101717,101718
101653, 101718,101719
101654, 101719,101720
101655, 101720,101721
101656, 101721,101722
101657, 101722,101723
101658, 101723,101724
101659, 101724,101725
101660, 101726,101727
101661, 101727,101728
101662, 101728,101729
101663, 101729,101730
101664, 101730,101731
101665, 101731,101732
101666, 101732,101733
101667, 101733,101734
101668, 101734,101735
101669, 101735,101736
101670, 101736,101737
101671, 101737,101738
101672, 101738,101739
101673, 101739,101740
101674, 101740,101741
101675, 101741,101742
101676, 101742,101743
101677, 101743,101744
101678, 101744,101745
101679, 101745,101746
101680, 101746,101747
101681, 101747,101748
101682, 101748,101749
101683, 101749,101750
101684, 101750,101751
101685, 101751,101752
101686, 101752,101753
101687, 101753,101754
101688, 101754,101755
101689, 101755,101756
101690, 101756,101757
101691, 101757,101758
101692, 101758,101759
101693, 101759,101760
101694, 101760,101761
101695, 101761,101762
101696, 101762,101763
101697, 101763,101764
101698, 101764,101765
101699, 101765,101766
101700, 101766,101767
101701, 101767,101768
101702, 101768,101769
101703, 101769,101770
101704, 101770,101771
101705, 101771,101772
101706, 101772,101773
101707, 101774,101775
101708, 101775,101776
101709, 101776,101777
101710, 101777,101778
101711, 101778,101779
101712, 101779,101780
101713, 101780,101781
101714, 101781,101782
101715, 101782,101783
101716, 101783,101784
101717, 101784,101785
101718, 101785,101786
101719, 101786,101787
101720, 101787,101788
101721, 101788,101789
101722, 101789,101790
101723, 101790,101791
101724, 101791,101792
101725, 101792,101793
101726, 101793,101794
101727, 101794,101795
101728, 101795,101796
101729, 101796,101797
101730, 101797,101798
101731, 101798,101799
101732, 101799,101800
101733, 101800,101801
101734, 101801,101802
101735, 101802,101803
101736, 101803,101804
101737, 101804,101805
101738, 101805,101806
101739, 101806,101807
101740, 101807,101808
101741, 101808,101809
101742, 101809,101810
101743, 101810,101811
101744, 101811,101812
101745, 101812,101813
101746, 101813,101814
101747, 101814,101815
101748, 101815,101816
101749, 101816,101817
101750, 101817,101818
101751, 101818,101819
101752, 101819,101820
101753, 101820,101821
101754, 101821,101822
101755, 101822,101823
101756, 101823,101824
101757, 101824,101825
101758, 101825,101826
101759, 101826,101827
101760, 101827,101828
101761, 101828,101829
101762, 101829,101830
101763, 101830,101831
101764, 101832,101833
101765, 101833,101834
101766, 101834,101835
101767, 101835,101836
101768, 101836,101837
101769, 101837,101838
101770, 101838,101839
101771, 101839,101840
101772, 101840,101841
101773, 101841,101842
101774, 101842,101843
101775, 101843,101844
101776, 101844,101845
101777, 101845,101846
101778, 101846,101847
101779, 101847,101848
101780, 101848,101849
101781, 101849,101850
101782, 101850,101851
101783, 101851,101852
101784, 101852,101853
101785, 101853,101854
101786, 101854,101855
101787, 101855,101856
101788, 101856,101857
101789, 101857,101858
101790, 101858,101859
101791, 101859,101860
101792, 101860,101861
101793, 101861,101862
101794, 101862,101863
101795, 101863,101864
101796, 101864,101865
101797, 101865,101866
101798, 101866,101867
101799, 101867,101868
101800, 101868,101869
101801, 101869,101870
101802, 101870,101871
101803, 101871,101872
101804, 101872,101873
101805, 101873,101874
101806, 101874,101875
101807, 101875,101876
101808, 101876,101877
101809, 101877,101878
101810, 101878,101879
101811, 101879,101880
101812, 101880,101881
101813, 101881,101882
101814, 101882,101883
101815, 101883,101884
101816, 101884,101885
101817, 101885,101886
101818, 101886,101887
101819, 101887,101888
101820, 101888,101889
101821, 101889,101890
101822, 101890,101891
101823, 101891,101892
101824, 101892,101893
101825, 101893,101894
101826, 101894,101895
101827, 101895,101896
101828, 101896,101897
101829, 101898,101899
101830, 101899,101900
101831, 101900,101901
101832, 101901,101902
101833, 101902,101903
101834, 101903,101904
101835, 101904,101905
101836, 101905,101906
101837, 101906,101907
101838, 101907,101908
101839, 101908,101909
101840, 101909,101910
101841, 101910,101911
101842, 101911,101912
101843, 101912,101913
101844, 101913,101914
101845, 101914,101915
101846, 101915,101916
101847, 101916,101917
101848, 101917,101918
101849, 101918,101919
101850, 101919,101920
101851, 101920,101921
101852, 101921,101922
101853, 101922,101923
101854, 101923,101924
101855, 101924,101925
101856, 101925,101926
101857, 101926,101927
101858, 101927,101928
101859, 101928,101929
101860, 101929,101930
101861, 101930,101931
101862, 101931,101932
101863, 101932,101933
101864, 101933,101934
101865, 101934,101935
101866, 101935,101936
101867, 101936,101937
101868, 101937,101938
101869, 101938,101939
101870, 101939,101940
101871, 101940,101941
101872, 101941,101942
101873, 101942,101943
101874, 101943,101944
101875, 101944,101945
101876, 101945,101946
101877, 101946,101947
101878, 101947,101948
101879, 101948,101949
101880, 101949,101950
101881, 101950,101951
101882, 101951,101952
101883, 101952,101953
101884, 101953,101954
101885, 101954,101955
101886, 101955,101956
101887, 101956,101957
101888, 101957,101958
101889, 101958,101959
101890, 101959,101960
101891, 101960,101961
101892, 101961,101962
101893, 101962,101963
101894, 101963,101964
101895, 101964,101965
101896, 101965,101966
101897, 101966,101967
101898, 101967,101968
101899, 101969,101970
101900, 101970,101971
101901, 101971,101972
101902, 101972,101973
101903, 101973,101974
101904, 101974,101975
101905, 101975,101976
101906, 101976,101977
101907, 101977,101978
101908, 101978,101979
101909, 101979,101980
101910, 101980,101981
101911, 101981,101982
101912, 101982,101983
101913, 101983,101984
101914, 101984,101985
101915, 101985,101986
101916, 101986,101987
101917, 101987,101988
101918, 101988,101989
101919, 101989,101990
101920, 101990,101991
101921, 101991,101992
101922, 101992,101993
101923, 101993,101994
101924, 101994,101995
101925, 101995,101996
101926, 101996,101997
101927, 101997,101998
101928, 101998,101999
101929, 101999,102000
101930, 102000,102001
101931, 102001,102002
101932, 102002,102003
101933, 102003,102004
101934, 102004,102005
101935, 102005,102006
101936, 102006,102007
101937, 102007,102008
101938, 102008,102009
101939, 102009,102010
101940, 102010,102011
101941, 102011,102012
101942, 102012,102013
101943, 102013,102014
101944, 102014,102015
101945, 102015,102016
101946, 102016,102017
101947, 102017,102018
101948, 102018,102019
101949, 102019,102020
101950, 102020,102021
101951, 102021,102022
101952, 102022,102023
101953, 102023,102024
101954, 102024,102025
101955, 102025,102026
101956, 102026,102027
101957, 102027,102028
101958, 102028,102029
101959, 102029,102030
101960, 102030,102031
101961, 102031,102032
101962, 102032,102033
101963, 102033,102034
101964, 102034,102035
101965, 102035,102036
101966, 102036,102037
101967, 102037,102038
101968, 102038,102039
101969, 102039,102040
101970, 102040,102041
101971, 102041,102042
101972, 102043,102044
101973, 102044,102045
101974, 102045,102046
101975, 102046,102047
101976, 102047,102048
101977, 102048,102049
101978, 102049,102050
101979, 102050,102051
101980, 102051,102052
101981, 102052,102053
101982, 102053,102054
101983, 102054,102055
101984, 102055,102056
101985, 102056,102057
101986, 102057,102058
101987, 102058,102059
101988, 102059,102060
101989, 102060,102061
101990, 102061,102062
101991, 102062,102063
101992, 102063,102064
101993, 102064,102065
101994, 102065,102066
101995, 102066,102067
101996, 102067,102068
101997, 102068,102069
101998, 102069,102070
101999, 102070,102071
102000, 102071,102072
102001, 102072,102073
102002, 102073,102074
102003, 102074,102075
102004, 102075,102076
102005, 102076,102077
102006, 102077,102078
102007, 102078,102079
102008, 102079,102080
102009, 102080,102081
102010, 102081,102082
102011, 102082,102083
102012, 102083,102084
102013, 102084,102085
102014, 102085,102086
102015, 102086,102087
102016, 102087,102088
102017, 102088,102089
102018, 102089,102090
102019, 102090,102091
102020, 102091,102092
102021, 102092,102093
102022, 102093,102094
102023, 102094,102095
102024, 102095,102096
102025, 102096,102097
102026, 102097,102098
102027, 102098,102099
102028, 102099,102100
102029, 102100,102101
102030, 102101,102102
102031, 102102,102103
102032, 102103,102104
102033, 102104,102105
102034, 102105,102106
102035, 102106,102107
102036, 102107,102108
102037, 102108,102109
102038, 102109,102110
102039, 102110,102111
102040, 102111,102112
102041, 102112,102113
102042, 102113,102114
102043, 102114,102115
102044, 102116,102117
102045, 102117,102118
102046, 102118,102119
102047, 102119,102120
102048, 102120,102121
102049, 102121,102122
102050, 102122,102123
102051, 102123,102124
102052, 102124,102125
102053, 102125,102126
102054, 102126,102127
102055, 102127,102128
102056, 102128,102129
102057, 102129,102130
102058, 102130,102131
102059, 102131,102132
102060, 102132,102133
102061, 102133,102134
102062, 102134,102135
102063, 102135,102136
102064, 102136,102137
102065, 102137,102138
102066, 102138,102139
102067, 102139,102140
102068, 102140,102141
102069, 102141,102142
102070, 102142,102143
102071, 102143,102144
102072, 102144,102145
102073, 102145,102146
102074, 102146,102147
102075, 102147,102148
102076, 102148,102149
102077, 102149,102150
102078, 102150,102151
102079, 102151,102152
102080, 102152,102153
102081, 102153,102154
102082, 102154,102155
102083, 102155,102156
102084, 102156,102157
102085, 102157,102158
102086, 102158,102159
102087, 102159,102160
102088, 102160,102161
102089, 102161,102162
102090, 102162,102163
102091, 102163,102164
102092, 102164,102165
102093, 102165,102166
102094, 102166,102167
102095, 102167,102168
102096, 102168,102169
102097, 102169,102170
102098, 102170,102171
102099, 102171,102172
102100, 102172,102173
102101, 102173,102174
102102, 102174,102175
102103, 102175,102176
102104, 102176,102177
102105, 102177,102178
102106, 102178,102179
102107, 102179,102180
102108, 102180,102181
102109, 102181,102182
102110, 102182,102183
102111, 102183,102184
102112, 102184,102185
102113, 102186,102187
102114, 102187,102188
102115, 102188,102189
102116, 102189,102190
102117, 102190,102191
102118, 102191,102192
102119, 102192,102193
102120, 102193,102194
102121, 102194,102195
102122, 102195,102196
102123, 102196,102197
102124, 102197,102198
102125, 102198,102199
102126, 102199,102200
102127, 102200,102201
102128, 102201,102202
102129, 102202,102203
102130, 102203,102204
102131, 102204,102205
102132, 102205,102206
102133, 102206,102207
102134, 102207,102208
102135, 102208,102209
102136, 102209,102210
102137, 102210,102211
102138, 102211,102212
102139, 102212,102213
102140, 102213,102214
102141, 102214,102215
102142, 102215,102216
102143, 102216,102217
102144, 102217,102218
102145, 102218,102219
102146, 102219,102220
102147, 102220,102221
102148, 102221,102222
102149, 102222,102223
102150, 102223,102224
102151, 102224,102225
102152, 102225,102226
102153, 102226,102227
102154, 102227,102228
102155, 102228,102229
102156, 102229,102230
102157, 102230,102231
102158, 102231,102232
102159, 102232,102233
102160, 102233,102234
102161, 102234,102235
102162, 102235,102236
102163, 102236,102237
102164, 102237,102238
102165, 102238,102239
102166, 102239,102240
102167, 102240,102241
102168, 102241,102242
102169, 102242,102243
102170, 102243,102244
102171, 102244,102245
102172, 102245,102246
102173, 102246,102247
102174, 102247,102248
102175, 102248,102249
102176, 102250,102251
102177, 102251,102252
102178, 102252,102253
102179, 102253,102254
102180, 102254,102255
102181, 102255,102256
102182, 102256,102257
102183, 102257,102258
102184, 102258,102259
102185, 102259,102260
102186, 102260,102261
102187, 102261,102262
102188, 102262,102263
102189, 102263,102264
102190, 102264,102265
102191, 102265,102266
102192, 102266,102267
102193, 102267,102268
102194, 102268,102269
102195, 102269,102270
102196, 102270,102271
102197, 102271,102272
102198, 102272,102273
102199, 102273,102274
102200, 102274,102275
102201, 102275,102276
102202, 102276,102277
102203, 102277,102278
102204, 102278,102279
102205, 102279,102280
102206, 102280,102281
102207, 102281,102282
102208, 102282,102283
102209, 102283,102284
102210, 102284,102285
102211, 102285,102286
102212, 102286,102287
102213, 102287,102288
102214, 102288,102289
102215, 102289,102290
102216, 102290,102291
102217, 102291,102292
102218, 102292,102293
102219, 102293,102294
102220, 102294,102295
102221, 102295,102296
102222, 102296,102297
102223, 102297,102298
102224, 102298,102299
102225, 102299,102300
102226, 102300,102301
102227, 102301,102302
102228, 102302,102303
102229, 102303,102304
102230, 102305,102306
102231, 102306,102307
102232, 102307,102308
102233, 102308,102309
102234, 102309,102310
102235, 102310,102311
102236, 102311,102312
102237, 102312,102313
102238, 102313,102314
102239, 102314,102315
102240, 102315,102316
102241, 102316,102317
102242, 102317,102318
102243, 102318,102319
102244, 102319,102320
102245, 102320,102321
102246, 102321,102322
102247, 102322,102323
102248, 102323,102324
102249, 102324,102325
102250, 102325,102326
102251, 102326,102327
102252, 102327,102328
102253, 102328,102329
102254, 102329,102330
102255, 102330,102331
102256, 102331,102332
102257, 102332,102333
102258, 102333,102334
102259, 102334,102335
102260, 102335,102336
102261, 102336,102337
102262, 102337,102338
102263, 102338,102339
102264, 102339,102340
102265, 102340,102341
102266, 102341,102342
102267, 102342,102343
102268, 102343,102344
102269, 102344,102345
102270, 102345,102346
102271, 102346,102347
102272, 102347,102348
102273, 102348,102349
*Solid Section, elset=EMBMESH_FIBERS_T0, material=EMBMESH_FIBER
0.0314159265358979
*Solid Section, elset=EMBMESH_FIBERS_T90, material=EMBMESH_FIBER
0.0314159265358979
*End Part
*Assembly, name=Assembly
*Instance, name=PLATE-1, part=PLATE
*End Instance
*Instance, name=EMBFIB-1, part=EMBFIB
*End Instance
*Embedded Element, host elset=PLATE-1.HOST
EMBFIB-1.EMBMESH_FIBERS_T0
EMBFIB-1.EMBMESH_FIBERS_T90
*End Assembly
*Material, name=EMBMESH_FIBER
*Elastic
1, 0.3
