*Heading
** verification deck t13_onface.inp
*Part, name=PLATE
*Node
1, 0, 0, 0
2, 0.5, 0, 0
3, 1, 0, 0
4, 1.5, 0, 0
5, 2, 0, 0
6, 0, 0.5, 0
7, 0.5, 0.5, 0
8, 1, 0.5, 0
9, 1.5, 0.5, 0
10, 2, 0.5, 0
11, 0, 1, 0
12, 0.5, 1, 0
13, 1, 1, 0
14, 1.5, 1, 0
15, 2, 1, 0
16, 0, 1.5, 0
17, 0.5, 1.5, 0
18, 1, 1.5, 0
19, 1.5, 1.5, 0
20, 2, 1.5, 0
21, 0, 2, 0
22, 0.5, 2, 0
23, 1, 2, 0
24, 1.5, 2, 0
25, 2, 2, 0
26, 0, 0, 0.5
27, 0.5, 0, 0.5
28, 1, 0, 0.5
29, 1.5, 0, 0.5
30, 2, 0, 0.5
31, 0, 0.5, 0.5
32, 0.5, 0.5, 0.5
33, 1, 0.5, 0.5
34, 1.5, 0.5, 0.5
35, 2, 0.5, 0.5
36, 0, 1, 0.5
37, 0.5, 1, 0.5
38, 1, 1, 0.5
39, 1.5, 1, 0.5
40, 2, 1, 0.5
41, 0, 1.5, 0.5
42, 0.5, 1.5, 0.5
43, 1, 1.5, 0.5
44, 1.5, 1.5, 0.5
45, 2, 1.5, 0.5
46, 0, 2, 0.5
47, 0.5, 2, 0.5
48, 1, 2, 0.5
49, 1.5, 2, 0.5
50, 2, 2, 0.5
51, 0, 0, 1
52, 0.5, 0, 1
53, 1, 0, 1
54, 1.5, 0, 1
55, 2, 0, 1
56, 0, 0.5, 1
57, 0.5, 0.5, 1
58, 1, 0.5, 1
59, 1.5, 0.5, 1
60, 2, 0.5, 1
61, 0, 1, 1
62, 0.5, 1, 1
63, 1, 1, 1
64, 1.5, 1, 1
65, 2, 1, 1
66, 0, 1.5, 1
67, 0.5, 1.5, 1
68, 1, 1.5, 1
69, 1.5, 1.5, 1
70, 2, 1.5, 1
71, 0, 2, 1
72, 0.5, 2, 1
73, 1, 2, 1
74, 1.5, 2, 1
75, 2, 2, 1
76, 0, 0, 1.5
77, 0.5, 0, 1.5
78, 1, 0, 1.5
79, 1.5, 0, 1.5
80, 2, 0, 1.5
81, 0, 0.5, 1.5
82, 0.5, 0.5, 1.5
83, 1, 0.5, 1.5
84, 1.5, 0.5, 1.5
85, 2, 0.5, 1.5
86, 0, 1, 1.5
87, 0.5, 1, 1.5
88, 1, 1, 1.5
89, 1.5, 1, 1.5
90, 2, 1, 1.5
91, 0, 1.5, 1.5
92, 0.5, 1.5, 1.5
93, 1, 1.5, 1.5
94, 1.5, 1.5, 1.5
95, 2, 1.5, 1.5
96, 0, 2, 1.5
97, 0.5, 2, 1.5
98, 1, 2, 1.5
99, 1.5, 2, 1.5
100, 2, 2, 1.5
101, 0, 0, 2
102, 0.5, 0, 2
103, 1, 0, 2
104, 1.5, 0, 2
105, 2, 0, 2
106, 0, 0.5, 2
107, 0.5, 0.5, 2
108, 1, 0.5, 2
109, 1.5, 0.5, 2
110, 2, 0.5, 2
111, 0, 1, 2
112, 0.5, 1, 2
113, 1, 1, 2
114, 1.5, 1, 2
115, 2, 1, 2
116, 0, 1.5, 2
117, 0.5, 1.5, 2
118, 1, 1.5, 2
119, 1.5, 1.5, 2
120, 2, 1.5, 2
121, 0, 2, 2
122, 0.5, 2, 2
123, 1, 2, 2
124, 1.5, 2, 2
125, 2, 2, 2
*Element, type=C3D8R, elset=HOST
1, 1, 2, 7, 6, 26, 27, 32, 31
2, 2, 3, 8, 7, 27, 28, 33, 32
3, 3, 4, 9, 8, 28, 29, 34, 33
4, 4, 5, 10, 9, 29, 30, 35, 34
5, 6, 7, 12, 11, 31, 32, 37, 36
6, 7, 8, 13, 12, 32, 33, 38, 37
7, 8, 9, 14, 13, 33, 34, 39, 38
8, 9, 10, 15, 14, 34, 35, 40, 39
9, 11, 12, 17, 16, 36, 37, 42, 41
10, 12, 13, 18, 17, 37, 38, 43, 42
11, 13, 14, 19, 18, 38, 39, 44, 43
12, 14, 15, 20, 19, 39, 40, 45, 44
13, 16, 17, 22, 21, 41, 42, 47, 46
14, 17, 18, 23, 22, 42, 43, 48, 47
15, 18, 19, 24, 23, 43, 44, 49, 48
16, 19, 20, 25, 24, 44, 45, 50, 49
17, 26, 27, 32, 31, 51, 52, 57, 56
18, 27, 28, 33, 32, 52, 53, 58, 57
19, 28, 29, 34, 33, 53, 54, 59, 58
20, 29, 30, 35, 34, 54, 55, 60, 59
21, 31, 32, 37, 36, 56, 57, 62, 61
22, 32, 33, 38, 37, 57, 58, 63, 62
23, 33, 34, 39, 38, 58, 59, 64, 63
24, 34, 35, 40, 39, 59, 60, 65, 64
25, 36, 37, 42, 41, 61, 62, 67, 66
26, 37, 38, 43, 42, 62, 63, 68, 67
27, 38, 39, 44, 43, 63, 64, 69, 68
28, 39, 40, 45, 44, 64, 65, 70, 69
29, 41, 42, 47, 46, 66, 67, 72, 71
30, 42, 43, 48, 47, 67, 68, 73, 72
31, 43, 44, 49, 48, 68, 69, 74, 73
32, 44, 45, 50, 49, 69, 70, 75, 74
33, 51, 52, 57, 56, 76, 77, 82, 81
34, 52, 53, 58, 57, 77, 78, 83, 82
35, 53, 54, 59, 58, 78, 79, 84, 83
36, 54, 55, 60, 59, 79, 80, 85, 84
37, 56, 57, 62, 61, 81, 82, 87, 86
38, 57, 58, 63, 62, 82, 83, 88, 87
39, 58, 59, 64, 63, 83, 84, 89, 88
40, 59, 60, 65, 64, 84, 85, 90, 89
41, 61, 62, 67, 66, 86, 87, 92, 91
42, 62, 63, 68, 67, 87, 88, 93, 92
43, 63, 64, 69, 68, 88, 89, 94, 93
44, 64, 65, 70, 69, 89, 90, 95, 94
45, 66, 67, 72, 71, 91, 92, 97, 96
46, 67, 68, 73, 72, 92, 93, 98, 97
47, 68, 69, 74, 73, 93, 94, 99, 98
48, 69, 70, 75, 74, 94, 95, 100, 99
49, 76, 77, 82, 81, 101, 102, 107, 106
50, 77, 78, 83, 82, 102, 103, 108, 107
51, 78, 79, 84, 83, 103, 104, 109, 108
52, 79, 80, 85, 84, 104, 105, 110, 109
53, 81, 82, 87, 86, 106, 107, 112, 111
54, 82, 83, 88, 87, 107, 108, 113, 112
55, 83, 84, 89, 88, 108, 109, 114, 113
56, 84, 85, 90, 89, 109, 110, 115, 114
57, 86, 87, 92, 91, 111, 112, 117, 116
58, 87, 88, 93, 92, 112, 113, 118, 117
59, 88, 89, 94, 93, 113, 114, 119, 118
60, 89, 90, 95, 94, 114, 115, 120, 119
61, 91, 92, 97, 96, 116, 117, 122, 121
62, 92, 93, 98, 97, 117, 118, 123, 122
63, 93, 94, 99, 98, 118, 119, 124, 123
64, 94, 95, 100, 99, 119, 120, 125, 124
*End Part
*Assembly, name=Assembly
*Instance, name=PLATE-1, part=PLATE
*End Instance
*End Assembly
** embmesh generated fibers
*Node, nset=EMBMESH_NODES
100000, 0, 0.5, 1.75
100001, 2, 0.5, 1.75
100002, 0, 0.5, 0.75
100003, 2, 0.5, 0.75
100004, 0.25, 1.5, 2
100005, 0.25, 1.5, 0
100006, 1.25, 1.5, 2
100007, 1.25, 1.5, 0
*Element, type=T3D2, elset=EMBMESH_FIBERS
100000, 100000,100001
100001, 100002,100003
100002, 100004,100005
100003, 100006,100007
*Solid Section, elset=EMBMESH_FIBERS, material=EMBMESH_FIBER
0.196349540849362
*Material, name=EMBMESH_FIBER
*Elastic
1., 0.3
*Embedded Element, host elset=HOST
EMBMESH_FIBERS
