*Heading
** verification deck t18.inp
*Part, name=PLATE
*Node
1, 0, 0, 0
2, 1, 0, 0
3, 2, 0, 0
4, 3, 0, 0
5, 0, 1, 0
6, 1, 1, 0
7, 2, 1, 0
8, 3, 1, 0
9, 0, 2, 0
10, 1, 2, 0
11, 2, 2, 0
12, 3, 2, 0
13, 0, 3, 0
14, 1, 3, 0
15, 2, 3, 0
16, 3, 3, 0
17, 0, 0, 0.75
18, 1, 0, 0.75
19, 2, 0, 0.75
20, 3, 0, 0.75
21, 0, 1, 0.75
22, 1, 1, 0.75
23, 2, 1, 0.75
24, 3, 1, 0.75
25, 0, 2, 0.75
26, 1, 2, 0.75
27, 2, 2, 0.75
28, 3, 2, 0.75
29, 0, 3, 0.75
30, 1, 3, 0.75
31, 2, 3, 0.75
32, 3, 3, 0.75
33, 0, 0, 1.5
34, 1, 0, 1.5
35, 2, 0, 1.5
36, 3, 0, 1.5
37, 0, 1, 1.5
38, 1, 1, 1.5
39, 2, 1, 1.5
40, 3, 1, 1.5
41, 0, 2, 1.5
42, 1, 2, 1.5
43, 2, 2, 1.5
44, 3, 2, 1.5
45, 0, 3, 1.5
46, 1, 3, 1.5
47, 2, 3, 1.5
48, 3, 3, 1.5
*Element, type=C3D8R, elset=HOST
1, 1, 2, 6, 5, 17, 18, 22, 21
2, 2, 3, 7, 6, 18, 19, 23, 22
3, 3, 4, 8, 7, 19, 20, 24, 23
4, 5, 6, 10, 9, 21, 22, 26, 25
5, 6, 7, 11, 10, 22, 23, 27, 26
6, 7, 8, 12, 11, 23, 24, 28, 27
7, 9, 10, 14, 13, 25, 26, 30, 29
8, 10, 11, 15, 14, 26, 27, 31, 30
9, 11, 12, 16, 15, 27, 28, 32, 31
10, 17, 18, 22, 21, 33, 34, 38, 37
11, 18, 19, 23, 22, 34, 35, 39, 38
12, 19, 20, 24, 23, 35, 36, 40, 39
13, 21, 22, 26, 25, 37, 38, 42, 41
14, 22, 23, 27, 26, 38, 39, 43, 42
15, 23, 24, 28, 27, 39, 40, 44, 43
16, 25, 26, 30, 29, 41, 42, 46, 45
17, 26, 27, 31, 30, 42, 43, 47, 46
18, 27, 28, 32, 31, 43, 44, 48, 47
*End Part
*Part, name=EMBFIB
*Node, nset=EMBMESH_NODES
100000, 0, 0.125, 0.125
100001, 3, 0.125, 0.125
100002, 0, 0.375, 0.125
100003, 3, 0.375, 0.125
100004, 0, 0.625, 0.125
100005, 3, 0.625, 0.125
100006, 0, 0.875, 0.125
100007, 3, 0.875, 0.125
100008, 0, 1.125, 0.125
100009, 3, 1.125, 0.125
100010, 0, 1.375, 0.125
100011, 3, 1.375, 0.125
100012, 0, 1.625, 0.125
100013, 3, 1.625, 0.125
100014, 0, 1.875, 0.125
100015, 3, 1.875, 0.125
100016, 0, 2.125, 0.125
100017, 3, 2.125, 0.125
100018, 0, 2.375, 0.125
100019, 3, 2.375, 0.125
100020, 0, 2.625, 0.125
100021, 3, 2.625, 0.125
100022, 0, 2.875, 0.125
100023, 3, 2.875, 0.125
100024, 0.125, 0, 0.375
100025, 0.125, 3, 0.375
100026, 0.375, 0, 0.375
100027, 0.375, 3, 0.375
100028, 0.625, 0, 0.375
100029, 0.625, 3, 0.375
100030, 0.875, 0, 0.375
100031, 0.875, 3, 0.375
100032, 1.125, 0, 0.375
100033, 1.125, 3, 0.375
100034, 1.375, 0, 0.375
100035, 1.375, 3, 0.375
100036, 1.625, 0, 0.375
100037, 1.625, 3, 0.375
100038, 1.875, 0, 0.375
100039, 1.875, 3, 0.375
100040, 2.125, 0, 0.375
100041, 2.125, 3, 0.375
100042, 2.375, 0, 0.375
100043, 2.375, 3, 0.375
100044, 2.625, 0, 0.375
100045, 2.625, 3, 0.375
100046, 2.875, 0, 0.375
100047, 2.875, 3, 0.375
100048, 0, 0.125, 0.625
100049, 3, 0.125, 0.625
100050, 0, 0.375, 0.625
100051, 3, 0.375, 0.625
100052, 0, 0.625, 0.625
100053, 3, 0.625, 0.625
100054, 0, 0.875, 0.625
100055, 3, 0.875, 0.625
100056, 0, 1.125, 0.625
100057, 3, 1.125, 0.625
100058, 0, 1.375, 0.625
100059, 3, 1.375, 0.625
100060, 0, 1.625, 0.625
100061, 3, 1.625, 0.625
100062, 0, 1.875, 0.625
100063, 3, 1.875, 0.625
100064, 0, 2.125, 0.625
100065, 3, 2.125, 0.625
100066, 0, 2.375, 0.625
100067, 3, 2.375, 0.625
100068, 0, 2.625, 0.625
100069, 3, 2.625, 0.625
100070, 0, 2.875, 0.625
100071, 3, 2.875, 0.625
100072, 0.125, 0, 0.875
100073, 0.125, 3, 0.875
100074, 0.375, 0, 0.875
100075, 0.375, 3, 0.875
100076, 0.625, 0, 0.875
100077, 0.625, 3, 0.875
100078, 0.875, 0, 0.875
100079, 0.875, 3, 0.875
100080, 1.125, 0, 0.875
100081, 1.125, 3, 0.875
100082, 1.375, 0, 0.875
100083, 1.375, 3, 0.875
100084, 1.625, 0, 0.875
100085, 1.625, 3, 0.875
100086, 1.875, 0, 0.875
100087, 1.875, 3, 0.875
100088, 2.125, 0, 0.875
100089, 2.125, 3, 0.875
100090, 2.375, 0, 0.875
100091, 2.375, 3, 0.875
100092, 2.625, 0, 0.875
100093, 2.625, 3, 0.875
100094, 2.875, 0, 0.875
100095, 2.875, 3, 0.875
100096, 0, 0.125, 1.125
100097, 3, 0.125, 1.125
100098, 0, 0.375, 1.125
100099, 3, 0.375, 1.125
100100, 0, 0.625, 1.125
100101, 3, 0.625, 1.125
100102, 0, 0.875, 1.125
100103, 3, 0.875, 1.125
100104, 0, 1.125, 1.125
100105, 3, 1.125, 1.125
100106, 0, 1.375, 1.125
100107, 3, 1.375, 1.125
100108, 0, 1.625, 1.125
100109, 3, 1.625, 1.125
100110, 0, 1.875, 1.125
100111, 3, 1.875, 1.125
100112, 0, 2.125, 1.125
100113, 3, 2.125, 1.125
100114, 0, 2.375, 1.125
100115, 3, 2.375, 1.125
100116, 0, 2.625, 1.125
100117, 3, 2.625, 1.125
100118, 0, 2.875, 1.125
100119, 3, 2.875, 1.125
100120, 0.125, 0, 1.375
100121, 0.125, 3, 1.375
100122, 0.375, 0, 1.375
100123, 0.375, 3, 1.375
100124, 0.625, 0, 1.375
100125, 0.625, 3, 1.375
100126, 0.875, 0, 1.375
100127, 0.875, 3, 1.375
100128, 1.125, 0, 1.375
100129, 1.125, 3, 1.375
100130, 1.375, 0, 1.375
100131, 1.375, 3, 1.375
100132, 1.625, 0, 1.375
100133, 1.625, 3, 1.375
100134, 1.875, 0, 1.375
100135, 1.875, 3, 1.375
100136, 2.125, 0, 1.375
100137, 2.125, 3, 1.375
100138, 2.375, 0, 1.375
100139, 2.375, 3, 1.375
100140, 2.625, 0, 1.375
100141, 2.625, 3, 1.375
100142, 2.875, 0, 1.375
100143, 2.875, 3, 1.375
*Element, type=T3D2, elset=EMBMESH_FIBERS_T0
100000, 100000,100001
100001, 100002,100003
100002, 100004,100005
100003, 100006,100007
100004, 100008,100009
100005, 100010,100011
100006, 100012,100013
100007, 100014,100015
100008, 100016,100017
100009, 100018,100019
100010, 100020,100021
100011, 100022,100023
100024, 100048,100049
100025, 100050,100051
100026, 100052,100053
100027, 100054,100055
100028, 100056,100057
100029, 100058,100059
100030, 100060,100061
100031, 100062,100063
100032, 100064,100065
100033, 100066,100067
100034, 100068,100069
100035, 100070,100071
100048, 100096,100097
100049, 100098,100099
100050, 100100,100101
100051, 100102,100103
100052, 100104,100105
100053, 100106,100107
100054, 100108,100109
100055, 100110,100111
100056, 100112,100113
100057, 100114,100115
100058, 100116,100117
100059, 100118,100119
*Element, type=T3D2, elset=EMBMESH_FIBERS_T90
100012, 100024,100025
100013, 100026,100027
100014, 100028,100029
100015, 100030,100031
100016, 100032,100033
100017, 100034,100035
100018, 100036,100037
100019, 100038,100039
100020, 100040,100041
100021, 100042,100043
100022, 100044,100045
100023, 100046,100047
100036, 100072,100073
100037, 100074,100075
100038, 100076,100077
100039, 100078,100079
100040, 100080,100081
100041, 100082,100083
100042, 100084,100085
100043, 100086,100087
100044, 100088,100089
100045, 100090,100091
100046, 100092,100093
100047, 100094,100095
100060, 100120,100121
100061, 100122,100123
100062, 100124,100125
100063, 100126,100127
100064, 100128,100129
100065, 100130,100131
100066, 100132,100133
100067, 100134,100135
100068, 100136,100137
100069, 100138,100139
100070, 100140,100141
100071, 100142,100143
*Solid Section, elset=EMBMESH_FIBERS_T0, material=EMBMESH_FIBER
0.0490873852123405
*Solid Section, elset=EMBMESH_FIBERS_T90, material=EMBMESH_FIBER
0.0490873852123405
*End Part
*Assembly, name=Assembly
*Instance, name=PLATE-1, part=PLATE
*End Instance
*Instance, name=EMBFIB-1, part=EMBFIB
*End Instance
*Embedded Element, host elset=PLATE-1.HOST
EMBFIB-1.EMBMESH_FIBERS_T0
EMBFIB-1.EMBMESH_FIBERS_T90
*End Assembly
*Material, name=EMBMESH_FIBER
*Elastic
1, 0.3
