*Part, name=PLATE
*Node
1, 2, 0, 0
2, 2.33333333333, 0, 0
3, 2.66666666667, 0, 0
4, 3, 0, 0
5, 1.84775906502, 0.76536686473, 0
6, 2.15571890919, 0.892928008852, 0
7, 2.46367875336, 1.02048915297, 0
8, 2.77163859753, 1.1480502971, 0
9, 1.41421356237, 1.41421356237, 0
10, 1.64991582277, 1.64991582277, 0
11, 1.88561808316, 1.88561808316, 0
12, 2.12132034356, 2.12132034356, 0
13, 0.76536686473, 1.84775906502, 0
14, 0.892928008852, 2.15571890919, 0
15, 1.02048915297, 2.46367875336, 0
16, 1.1480502971, 2.77163859753, 0
17, 1.22464679915e-16, 2, 0
18, 1.42875459901e-16, 2.33333333333, 0
19, 1.63286239886e-16, 2.66666666667, 0
20, 1.83697019872e-16, 3, 0
21, -0.76536686473, 1.84775906502, 0
22, -0.892928008852, 2.15571890919, 0
23, -1.02048915297, 2.46367875336, 0
24, -1.1480502971, 2.77163859753, 0
25, -1.41421356237, 1.41421356237, 0
26, -1.64991582277, 1.64991582277, 0
27, -1.88561808316, 1.88561808316, 0
28, -2.12132034356, 2.12132034356, 0
29, -1.84775906502, 0.76536686473, 0
30, -2.15571890919, 0.892928008852, 0
31, -2.46367875336, 1.02048915297, 0
32, -2.77163859753, 1.1480502971, 0
33, -2, 2.44929359829e-16, 0
34, -2.33333333333, 2.85750919801e-16, 0
35, -2.66666666667, 3.26572479773e-16, 0
36, -3, 3.67394039744e-16, 0
37, -1.84775906502, -0.76536686473, 0
38, -2.15571890919, -0.892928008852, 0
39, -2.46367875336, -1.02048915297, 0
40, -2.77163859753, -1.1480502971, 0
41, -1.41421356237, -1.41421356237, 0
42, -1.64991582277, -1.64991582277, 0
43, -1.88561808316, -1.88561808316, 0
44, -2.12132034356, -2.12132034356, 0
45, -0.76536686473, -1.84775906502, 0
46, -0.892928008852, -2.15571890919, 0
47, -1.02048915297, -2.46367875336, 0
48, -1.1480502971, -2.77163859753, 0
49, -3.67394039744e-16, -2, 0
50, -4.28626379702e-16, -2.33333333333, 0
51, -4.89858719659e-16, -2.66666666667, 0
52, -5.51091059616e-16, -3, 0
53, 0.76536686473, -1.84775906502, 0
54, 0.892928008852, -2.15571890919, 0
55, 1.02048915297, -2.46367875336, 0
56, 1.1480502971, -2.77163859753, 0
57, 1.41421356237, -1.41421356237, 0
58, 1.64991582277, -1.64991582277, 0
59, 1.88561808316, -1.88561808316, 0
60, 2.12132034356, -2.12132034356, 0
61, 1.84775906502, -0.76536686473, 0
62, 2.15571890919, -0.892928008852, 0
63, 2.46367875336, -1.02048915297, 0
64, 2.77163859753, -1.1480502971, 0
65, 2, 0, 1.25
66, 2.33333333333, 0, 1.25
67, 2.66666666667, 0, 1.25
68, 3, 0, 1.25
69, 1.84775906502, 0.76536686473, 1.25
70, 2.15571890919, 0.892928008852, 1.25
71, 2.46367875336, 1.02048915297, 1.25
72, 2.77163859753, 1.1480502971, 1.25
73, 1.41421356237, 1.41421356237, 1.25
74, 1.64991582277, 1.64991582277, 1.25
75, 1.88561808316, 1.88561808316, 1.25
76, 2.12132034356, 2.12132034356, 1.25
77, 0.76536686473, 1.84775906502, 1.25
78, 0.892928008852, 2.15571890919, 1.25
79, 1.02048915297, 2.46367875336, 1.25
80, 1.1480502971, 2.77163859753, 1.25
81, 1.22464679915e-16, 2, 1.25
82, 1.42875459901e-16, 2.33333333333, 1.25
83, 1.63286239886e-16, 2.66666666667, 1.25
84, 1.83697019872e-16, 3, 1.25
85, -0.76536686473, 1.84775906502, 1.25
86, -0.892928008852, 2.15571890919, 1.25
87, -1.02048915297, 2.46367875336, 1.25
88, -1.1480502971, 2.77163859753, 1.25
89, -1.41421356237, 1.41421356237, 1.25
90, -1.64991582277, 1.64991582277, 1.25
91, -1.88561808316, 1.88561808316, 1.25
92, -2.12132034356, 2.12132034356, 1.25
93, -1.84775906502, 0.76536686473, 1.25
94, -2.15571890919, 0.892928008852, 1.25
95, -2.46367875336, 1.02048915297, 1.25
96, -2.77163859753, 1.1480502971, 1.25
97, -2, 2.44929359829e-16, 1.25
98, -2.33333333333, 2.85750919801e-16, 1.25
99, -2.66666666667, 3.26572479773e-16, 1.25
100, -3, 3.67394039744e-16, 1.25
101, -1.84775906502, -0.76536686473, 1.25
102, -2.15571890919, -0.892928008852, 1.25
103, -2.46367875336, -1.02048915297, 1.25
104, -2.77163859753, -1.1480502971, 1.25
105, -1.41421356237, -1.41421356237, 1.25
106, -1.64991582277, -1.64991582277, 1.25
107, -1.88561808316, -1.88561808316, 1.25
108, -2.12132034356, -2.12132034356, 1.25
109, -0.76536686473, -1.84775906502, 1.25
110, -0.892928008852, -2.15571890919, 1.25
111, -1.02048915297, -2.46367875336, 1.25
112, -1.1480502971, -2.77163859753, 1.25
113, -3.67394039744e-16, -2, 1.25
114, -4.28626379702e-16, -2.33333333333, 1.25
115, -4.89858719659e-16, -2.66666666667, 1.25
116, -5.51091059616e-16, -3, 1.25
117, 0.76536686473, -1.84775906502, 1.25
118, 0.892928008852, -2.15571890919, 1.25
119, 1.02048915297, -2.46367875336, 1.25
120, 1.1480502971, -2.77163859753, 1.25
121, 1.41421356237, -1.41421356237, 1.25
122, 1.64991582277, -1.64991582277, 1.25
123, 1.88561808316, -1.88561808316, 1.25
124, 2.12132034356, -2.12132034356, 1.25
125, 1.84775906502, -0.76536686473, 1.25
126, 2.15571890919, -0.892928008852, 1.25
127, 2.46367875336, -1.02048915297, 1.25
128, 2.77163859753, -1.1480502971, 1.25
129, 2, 0, 2.5
130, 2.33333333333, 0, 2.5
131, 2.66666666667, 0, 2.5
132, 3, 0, 2.5
133, 1.84775906502, 0.76536686473, 2.5
134, 2.15571890919, 0.892928008852, 2.5
135, 2.46367875336, 1.02048915297, 2.5
136, 2.77163859753, 1.1480502971, 2.5
137, 1.41421356237, 1.41421356237, 2.5
138, 1.64991582277, 1.64991582277, 2.5
139, 1.88561808316, 1.88561808316, 2.5
140, 2.12132034356, 2.12132034356, 2.5
141, 0.76536686473, 1.84775906502, 2.5
142, 0.892928008852, 2.15571890919, 2.5
143, 1.02048915297, 2.46367875336, 2.5
144, 1.1480502971, 2.77163859753, 2.5
145, 1.22464679915e-16, 2, 2.5
146, 1.42875459901e-16, 2.33333333333, 2.5
147, 1.63286239886e-16, 2.66666666667, 2.5
148, 1.83697019872e-16, 3, 2.5
149, -0.76536686473, 1.84775906502, 2.5
150, -0.892928008852, 2.15571890919, 2.5
151, -1.02048915297, 2.46367875336, 2.5
152, -1.1480502971, 2.77163859753, 2.5
153, -1.41421356237, 1.41421356237, 2.5
154, -1.64991582277, 1.64991582277, 2.5
155, -1.88561808316, 1.88561808316, 2.5
156, -2.12132034356, 2.12132034356, 2.5
157, -1.84775906502, 0.76536686473, 2.5
158, -2.15571890919, 0.892928008852, 2.5
159, -2.46367875336, 1.02048915297, 2.5
160, -2.77163859753, 1.1480502971, 2.5
161, -2, 2.44929359829e-16, 2.5
162, -2.33333333333, 2.85750919801e-16, 2.5
163, -2.66666666667, 3.26572479773e-16, 2.5
164, -3, 3.67394039744e-16, 2.5
165, -1.84775906502, -0.76536686473, 2.5
166, -2.15571890919, -0.892928008852, 2.5
167, -2.46367875336, -1.02048915297, 2.5
168, -2.77163859753, -1.1480502971, 2.5
169, -1.41421356237, -1.41421356237, 2.5
170, -1.64991582277, -1.64991582277, 2.5
171, -1.88561808316, -1.88561808316, 2.5
172, -2.12132034356, -2.12132034356, 2.5
173, -0.76536686473, -1.84775906502, 2.5
174, -0.892928008852, -2.15571890919, 2.5
175, -1.02048915297, -2.46367875336, 2.5
176, -1.1480502971, -2.77163859753, 2.5
177, -3.67394039744e-16, -2, 2.5
178, -4.28626379702e-16, -2.33333333333, 2.5
179, -4.89858719659e-16, -2.66666666667, 2.5
180, -5.51091059616e-16, -3, 2.5
181, 0.76536686473, -1.84775906502, 2.5
182, 0.892928008852, -2.15571890919, 2.5
183, 1.02048915297, -2.46367875336, 2.5
184, 1.1480502971, -2.77163859753, 2.5
185, 1.41421356237, -1.41421356237, 2.5
186, 1.64991582277, -1.64991582277, 2.5
187, 1.88561808316, -1.88561808316, 2.5
188, 2.12132034356, -2.12132034356, 2.5
189, 1.84775906502, -0.76536686473, 2.5
190, 2.15571890919, -0.892928008852, 2.5
191, 2.46367875336, -1.02048915297, 2.5
192, 2.77163859753, -1.1480502971, 2.5
193, 2, 0, 3.75
194, 2.33333333333, 0, 3.75
195, 2.66666666667, 0, 3.75
196, 3, 0, 3.75
197, 1.84775906502, 0.76536686473, 3.75
198, 2.15571890919, 0.892928008852, 3.75
199, 2.46367875336, 1.02048915297, 3.75
200, 2.77163859753, 1.1480502971, 3.75
201, 1.41421356237, 1.41421356237, 3.75
202, 1.64991582277, 1.64991582277, 3.75
203, 1.88561808316, 1.88561808316, 3.75
204, 2.12132034356, 2.12132034356, 3.75
205, 0.76536686473, 1.84775906502, 3.75
206, 0.892928008852, 2.15571890919, 3.75
207, 1.02048915297, 2.46367875336, 3.75
208, 1.1480502971, 2.77163859753, 3.75
209, 1.22464679915e-16, 2, 3.75
210, 1.42875459901e-16, 2.33333333333, 3.75
211, 1.63286239886e-16, 2.66666666667, 3.75
212, 1.83697019872e-16, 3, 3.75
213, -0.76536686473, 1.84775906502, 3.75
214, -0.892928008852, 2.15571890919, 3.75
215, -1.02048915297, 2.46367875336, 3.75
216, -1.1480502971, 2.77163859753, 3.75
217, -1.41421356237, 1.41421356237, 3.75
218, -1.64991582277, 1.64991582277, 3.75
219, -1.88561808316, 1.88561808316, 3.75
220, -2.12132034356, 2.12132034356, 3.75
221, -1.84775906502, 0.76536686473, 3.75
222, -2.15571890919, 0.892928008852, 3.75
223, -2.46367875336, 1.02048915297, 3.75
224, -2.77163859753, 1.1480502971, 3.75
225, -2, 2.44929359829e-16, 3.75
226, -2.33333333333, 2.85750919801e-16, 3.75
227, -2.66666666667, 3.26572479773e-16, 3.75
228, -3, 3.67394039744e-16, 3.75
229, -1.84775906502, -0.76536686473, 3.75
230, -2.15571890919, -0.892928008852, 3.75
231, -2.46367875336, -1.02048915297, 3.75
232, -2.77163859753, -1.1480502971, 3.75
233, -1.41421356237, -1.41421356237, 3.75
234, -1.64991582277, -1.64991582277, 3.75
235, -1.88561808316, -1.88561808316, 3.75
236, -2.12132034356, -2.12132034356, 3.75
237, -0.76536686473, -1.84775906502, 3.75
238, -0.892928008852, -2.15571890919, 3.75
239, -1.02048915297, -2.46367875336, 3.75
240, -1.1480502971, -2.77163859753, 3.75
241, -3.67394039744e-16, -2, 3.75
242, -4.28626379702e-16, -2.33333333333, 3.75
243, -4.89858719659e-16, -2.66666666667, 3.75
244, -5.51091059616e-16, -3, 3.75
245, 0.76536686473, -1.84775906502, 3.75
246, 0.892928008852, -2.15571890919, 3.75
247, 1.02048915297, -2.46367875336, 3.75
248, 1.1480502971, -2.77163859753, 3.75
249, 1.41421356237, -1.41421356237, 3.75
250, 1.64991582277, -1.64991582277, 3.75
251, 1.88561808316, -1.88561808316, 3.75
252, 2.12132034356, -2.12132034356, 3.75
253, 1.84775906502, -0.76536686473, 3.75
254, 2.15571890919, -0.892928008852, 3.75
255, 2.46367875336, -1.02048915297, 3.75
256, 2.77163859753, -1.1480502971, 3.75
257, 2, 0, 5
258, 2.33333333333, 0, 5
259, 2.66666666667, 0, 5
260, 3, 0, 5
261, 1.84775906502, 0.76536686473, 5
262, 2.15571890919, 0.892928008852, 5
263, 2.46367875336, 1.02048915297, 5
264, 2.77163859753, 1.1480502971, 5
265, 1.41421356237, 1.41421356237, 5
266, 1.64991582277, 1.64991582277, 5
267, 1.88561808316, 1.88561808316, 5
268, 2.12132034356, 2.12132034356, 5
269, 0.76536686473, 1.84775906502, 5
270, 0.892928008852, 2.15571890919, 5
271, 1.02048915297, 2.46367875336, 5
272, 1.1480502971, 2.77163859753, 5
273, 1.22464679915e-16, 2, 5
274, 1.42875459901e-16, 2.33333333333, 5
275, 1.63286239886e-16, 2.66666666667, 5
276, 1.83697019872e-16, 3, 5
277, -0.76536686473, 1.84775906502, 5
278, -0.892928008852, 2.15571890919, 5
279, -1.02048915297, 2.46367875336, 5
280, -1.1480502971, 2.77163859753, 5
281, -1.41421356237, 1.41421356237, 5
282, -1.64991582277, 1.64991582277, 5
283, -1.88561808316, 1.88561808316, 5
284, -2.12132034356, 2.12132034356, 5
285, -1.84775906502, 0.76536686473, 5
286, -2.15571890919, 0.892928008852, 5
287, -2.46367875336, 1.02048915297, 5
288, -2.77163859753, 1.1480502971, 5
289, -2, 2.44929359829e-16, 5
290, -2.33333333333, 2.85750919801e-16, 5
291, -2.66666666667, 3.26572479773e-16, 5
292, -3, 3.67394039744e-16, 5
293, -1.84775906502, -0.76536686473, 5
294, -2.15571890919, -0.892928008852, 5
295, -2.46367875336, -1.02048915297, 5
296, -2.77163859753, -1.1480502971, 5
297, -1.41421356237, -1.41421356237, 5
298, -1.64991582277, -1.64991582277, 5
299, -1.88561808316, -1.88561808316, 5
300, -2.12132034356, -2.12132034356, 5
301, -0.76536686473, -1.84775906502, 5
302, -0.892928008852, -2.15571890919, 5
303, -1.02048915297, -2.46367875336, 5
304, -1.1480502971, -2.77163859753, 5
305, -3.67394039744e-16, -2, 5
306, -4.28626379702e-16, -2.33333333333, 5
307, -4.89858719659e-16, -2.66666666667, 5
308, -5.51091059616e-16, -3, 5
309, 0.76536686473, -1.84775906502, 5
310, 0.892928008852, -2.15571890919, 5
311, 1.02048915297, -2.46367875336, 5
312, 1.1480502971, -2.77163859753, 5
313, 1.41421356237, -1.41421356237, 5
314, 1.64991582277, -1.64991582277, 5
315, 1.88561808316, -1.88561808316, 5
316, 2.12132034356, -2.12132034356, 5
317, 1.84775906502, -0.76536686473, 5
318, 2.15571890919, -0.892928008852, 5
319, 2.46367875336, -1.02048915297, 5
320, 2.77163859753, -1.1480502971, 5
*Element, type=C3D8R, elset=HOST
1, 1, 2, 6, 5, 65, 66, 70, 69
2, 2, 3, 7, 6, 66, 67, 71, 70
3, 3, 4, 8, 7, 67, 68, 72, 71
4, 5, 6, 10, 9, 69, 70, 74, 73
5, 6, 7, 11, 10, 70, 71, 75, 74
6, 7, 8, 12, 11, 71, 72, 76, 75
7, 9, 10, 14, 13, 73, 74, 78, 77
8, 10, 11, 15, 14, 74, 75, 79, 78
9, 11, 12, 16, 15, 75, 76, 80, 79
10, 13, 14, 18, 17, 77, 78, 82, 81
11, 14, 15, 19, 18, 78, 79, 83, 82
12, 15, 16, 20, 19, 79, 80, 84, 83
13, 17, 18, 22, 21, 81, 82, 86, 85
14, 18, 19, 23, 22, 82, 83, 87, 86
15, 19, 20, 24, 23, 83, 84, 88, 87
16, 21, 22, 26, 25, 85, 86, 90, 89
17, 22, 23, 27, 26, 86, 87, 91, 90
18, 23, 24, 28, 27, 87, 88, 92, 91
19, 25, 26, 30, 29, 89, 90, 94, 93
20, 26, 27, 31, 30, 90, 91, 95, 94
21, 27, 28, 32, 31, 91, 92, 96, 95
22, 29, 30, 34, 33, 93, 94, 98, 97
23, 30, 31, 35, 34, 94, 95, 99, 98
24, 31, 32, 36, 35, 95, 96, 100, 99
25, 33, 34, 38, 37, 97, 98, 102, 101
26, 34, 35, 39, 38, 98, 99, 103, 102
27, 35, 36, 40, 39, 99, 100, 104, 103
28, 37, 38, 42, 41, 101, 102, 106, 105
29, 38, 39, 43, 42, 102, 103, 107, 106
30, 39, 40, 44, 43, 103, 104, 108, 107
31, 41, 42, 46, 45, 105, 106, 110, 109
32, 42, 43, 47, 46, 106, 107, 111, 110
33, 43, 44, 48, 47, 107, 108, 112, 111
34, 45, 46, 50, 49, 109, 110, 114, 113
35, 46, 47, 51, 50, 110, 111, 115, 114
36, 47, 48, 52, 51, 111, 112, 116, 115
37, 49, 50, 54, 53, 113, 114, 118, 117
38, 50, 51, 55, 54, 114, 115, 119, 118
39, 51, 52, 56, 55, 115, 116, 120, 119
40, 53, 54, 58, 57, 117, 118, 122, 121
41, 54, 55, 59, 58, 118, 119, 123, 122
42, 55, 56, 60, 59, 119, 120, 124, 123
43, 57, 58, 62, 61, 121, 122, 126, 125
44, 58, 59, 63, 62, 122, 123, 127, 126
45, 59, 60, 64, 63, 123, 124, 128, 127
46, 61, 62, 2, 1, 125, 126, 66, 65
47, 62, 63, 3, 2, 126, 127, 67, 66
48, 63, 64, 4, 3, 127, 128, 68, 67
49, 65, 66, 70, 69, 129, 130, 134, 133
50, 66, 67, 71, 70, 130, 131, 135, 134
51, 67, 68, 72, 71, 131, 132, 136, 135
52, 69, 70, 74, 73, 133, 134, 138, 137
53, 70, 71, 75, 74, 134, 135, 139, 138
54, 71, 72, 76, 75, 135, 136, 140, 139
55, 73, 74, 78, 77, 137, 138, 142, 141
56, 74, 75, 79, 78, 138, 139, 143, 142
57, 75, 76, 80, 79, 139, 140, 144, 143
58, 77, 78, 82, 81, 141, 142, 146, 145
59, 78, 79, 83, 82, 142, 143, 147, 146
60, 79, 80, 84, 83, 143, 144, 148, 147
61, 81, 82, 86, 85, 145, 146, 150, 149
62, 82, 83, 87, 86, 146, 147, 151, 150
63, 83, 84, 88, 87, 147, 148, 152, 151
64, 85, 86, 90, 89, 149, 150, 154, 153
65, 86, 87, 91, 90, 150, 151, 155, 154
66, 87, 88, 92, 91, 151, 152, 156, 155
67, 89, 90, 94, 93, 153, 154, 158, 157
68, 90, 91, 95, 94, 154, 155, 159, 158
69, 91, 92, 96, 95, 155, 156, 160, 159
70, 93, 94, 98, 97, 157, 158, 162, 161
71, 94, 95, 99, 98, 158, 159, 163, 162
72, 95, 96, 100, 99, 159, 160, 164, 163
73, 97, 98, 102, 101, 161, 162, 166, 165
74, 98, 99, 103, 102, 162, 163, 167, 166
75, 99, 100, 104, 103, 163, 164, 168, 167
76, 101, 102, 106, 105, 165, 166, 170, 169
77, 102, 103, 107, 106, 166, 167, 171, 170
78, 103, 104, 108, 107, 167, 168, 172, 171
79, 105, 106, 110, 109, 169, 170, 174, 173
80, 106, 107, 111, 110, 170, 171, 175, 174
81, 107, 108, 112, 111, 171, 172, 176, 175
82, 109, 110, 114, 113, 173, 174, 178, 177
83, 110, 111, 115, 114, 174, 175, 179, 178
84, 111, 112, 116, 115, 175, 176, 180, 179
85, 113, 114, 118, 117, 177, 178, 182, 181
86, 114, 115, 119, 118, 178, 179, 183, 182
87, 115, 116, 120, 119, 179, 180, 184, 183
88, 117, 118, 122, 121, 181, 182, 186, 185
89, 118, 119, 123, 122, 182, 183, 187, 186
90, 119, 120, 124, 123, 183, 184, 188, 187
91, 121, 122, 126, 125, 185, 186, 190, 189
92, 122, 123, 127, 126, 186, 187, 191, 190
93, 123, 124, 128, 127, 187, 188, 192, 191
94, 125, 126, 66, 65, 189, 190, 130, 129
95, 126, 127, 67, 66, 190, 191, 131, 130
96, 127, 128, 68, 67, 191, 192, 132, 131
97, 129, 130, 134, 133, 193, 194, 198, 197
98, 130, 131, 135, 134, 194, 195, 199, 198
99, 131, 132, 136, 135, 195, 196, 200, 199
100, 133, 134, 138, 137, 197, 198, 202, 201
101, 134, 135, 139, 138, 198, 199, 203, 202
102, 135, 136, 140, 139, 199, 200, 204, 203
103, 137, 138, 142, 141, 201, 202, 206, 205
104, 138, 139, 143, 142, 202, 203, 207, 206
105, 139, 140, 144, 143, 203, 204, 208, 207
106, 141, 142, 146, 145, 205, 206, 210, 209
107, 142, 143, 147, 146, 206, 207, 211, 210
108, 143, 144, 148, 147, 207, 208, 212, 211
109, 145, 146, 150, 149, 209, 210, 214, 213
110, 146, 147, 151, 150, 210, 211, 215, 214
111, 147, 148, 152, 151, 211, 212, 216, 215
112, 149, 150, 154, 153, 213, 214, 218, 217
113, 150, 151, 155, 154, 214, 215, 219, 218
114, 151, 152, 156, 155, 215, 216, 220, 219
115, 153, 154, 158, 157, 217, 218, 222, 221
116, 154, 155, 159, 158, 218, 219, 223, 222
117, 155, 156, 160, 159, 219, 220, 224, 223
118, 157, 158, 162, 161, 221, 222, 226, 225
119, 158, 159, 163, 162, 222, 223, 227, 226
120, 159, 160, 164, 163, 223, 224, 228, 227
121, 161, 162, 166, 165, 225, 226, 230, 229
122, 162, 163, 167, 166, 226, 227, 231, 230
123, 163, 164, 168, 167, 227, 228, 232, 231
124, 165, 166, 170, 169, 229, 230, 234, 233
125, 166, 167, 171, 170, 230, 231, 235, 234
126, 167, 168, 172, 171, 231, 232, 236, 235
127, 169, 170, 174, 173, 233, 234, 238, 237
128, 170, 171, 175, 174, 234, 235, 239, 238
129, 171, 172, 176, 175, 235, 236, 240, 239
130, 173, 174, 178, 177, 237, 238, 242, 241
131, 174, 175, 179, 178, 238, 239, 243, 242
132, 175, 176, 180, 179, 239, 240, 244, 243
133, 177, 178, 182, 181, 241, 242, 246, 245
134, 178, 179, 183, 182, 242, 243, 247, 246
135, 179, 180, 184, 183, 243, 244, 248, 247
136, 181, 182, 186, 185, 245, 246, 250, 249
137, 182, 183, 187, 186, 246, 247, 251, 250
138, 183, 184, 188, 187, 247, 248, 252, 251
139, 185, 186, 190, 189, 249, 250, 254, 253
140, 186, 187, 191, 190, 250, 251, 255, 254
141, 187, 188, 192, 191, 251, 252, 256, 255
142, 189, 190, 130, 129, 253, 254, 194, 193
143, 190, 191, 131, 130, 254, 255, 195, 194
144, 191, 192, 132, 131, 255, 256, 196, 195
145, 193, 194, 198, 197, 257, 258, 262, 261
146, 194, 195, 199, 198, 258, 259, 263, 262
147, 195, 196, 200, 199, 259, 260, 264, 263
148, 197, 198, 202, 201, 261, 262, 266, 265
149, 198, 199, 203, 202, 262, 263, 267, 266
150, 199, 200, 204, 203, 263, 264, 268, 267
151, 201, 202, 206, 205, 265, 266, 270, 269
152, 202, 203, 207, 206, 266, 267, 271, 270
153, 203, 204, 208, 207, 267, 268, 272, 271
154, 205, 206, 210, 209, 269, 270, 274, 273
155, 206, 207, 211, 210, 270, 271, 275, 274
156, 207, 208, 212, 211, 271, 272, 276, 275
157, 209, 210, 214, 213, 273, 274, 278, 277
158, 210, 211, 215, 214, 274, 275, 279, 278
159, 211, 212, 216, 215, 275, 276, 280, 279
160, 213, 214, 218, 217, 277, 278, 282, 281
161, 214, 215, 219, 218, 278, 279, 283, 282
162, 215, 216, 220, 219, 279, 280, 284, 283
163, 217, 218, 222, 221, 281, 282, 286, 285
164, 218, 219, 223, 222, 282, 283, 287, 286
165, 219, 220, 224, 223, 283, 284, 288, 287
166, 221, 222, 226, 225, 285, 286, 290, 289
167, 222, 223, 227, 226, 286, 287, 291, 290
168, 223, 224, 228, 227, 287, 288, 292, 291
169, 225, 226, 230, 229, 289, 290, 294, 293
170, 226, 227, 231, 230, 290, 291, 295, 294
171, 227, 228, 232, 231, 291, 292, 296, 295
172, 229, 230, 234, 233, 293, 294, 298, 297
173, 230, 231, 235, 234, 294, 295, 299, 298
174, 231, 232, 236, 235, 295, 296, 300, 299
175, 233, 234, 238, 237, 297, 298, 302, 301
176, 234, 235, 239, 238, 298, 299, 303, 302
177, 235, 236, 240, 239, 299, 300, 304, 303
178, 237, 238, 242, 241, 301, 302, 306, 305
179, 238, 239, 243, 242, 302, 303, 307, 306
180, 239, 240, 244, 243, 303, 304, 308, 307
181, 241, 242, 246, 245, 305, 306, 310, 309
182, 242, 243, 247, 246, 306, 307, 311, 310
183, 243, 244, 248, 247, 307, 308, 312, 311
184, 245, 246, 250, 249, 309, 310, 314, 313
185, 246, 247, 251, 250, 310, 311, 315, 314
186, 247, 248, 252, 251, 311, 312, 316, 315
187, 249, 250, 254, 253, 313, 314, 318, 317
188, 250, 251, 255, 254, 314, 315, 319, 318
189, 251, 252, 256, 255, 315, 316, 320, 319
190, 253, 254, 194, 193, 317, 318, 258, 257
191, 254, 255, 195, 194, 318, 319, 259, 258
192, 255, 256, 196, 195, 319, 320, 260, 259
*Solid Section, elset=HOST, material=MATRIX
,
*End Part
*Part, name=EMBFIB
*Node, nset=EMBMESH_NODES
100000, 2.09754767634, 0.101458097003, 0
100001, 2.09754767634, 0.101458097003, 5
100002, 2.07796343884, 0.303427004095, 0
100003, 2.07796343884, 0.303427004095, 5
100004, 2.03897781659, 0.502562895003, 0
100005, 2.03897781659, 0.502562895003, 5
100006, 1.98095480784, 0.697006491568, 0
100007, 1.98095480784, 0.697006491568, 5
100008, 1.90443615778, 0.88494232632, 0
100009, 1.90443615778, 0.88494232632, 5
100010, 1.81013630044, 1.06461569301, 0
100011, 1.81013630044, 1.06461569301, 5
100012, 1.69893568818, 1.23434902981, 0
100013, 1.69893568818, 1.23434902981, 5
100014, 1.57187257116, 1.3925575823, 0
100015, 1.57187257116, 1.3925575823, 5
100016, 1.43013330345, 1.53776419985, 0
100017, 1.43013330345, 1.53776419985, 5
100018, 1.27504126642, 1.6686131274, 0
100019, 1.27504126642, 1.6686131274, 5
100020, 1.10804451262, 1.78388266375, 0
100021, 1.10804451262, 1.78388266375, 5
100022, 0.930702245756, 1.88249656832, 0
100023, 0.930702245756, 1.88249656832, 5
100024, 0.744670262788, 1.96353410964, 0
100025, 0.744670262788, 1.96353410964, 5
100026, 0.551685494216, 2.02623866202, 0
100027, 0.551685494216, 2.02623866202, 5
100028, 0.353549786828, 2.07002476995, 0
100029, 0.353549786828, 2.07002476995, 5
100030, 0.152113080339, 2.09448361435, 0
100031, 0.152113080339, 2.09448361435, 5
100032, -0.0507438649958, 2.09938682956, 0
100033, -0.0507438649958, 2.09938682956, 5
100034, -0.253127028536, 2.0846886356, 0
100035, -0.253127028536, 2.0846886356, 5
100036, -0.453146813211, 2.05052626554, 0
100037, -0.453146813211, 2.05052626554, 5
100038, -0.648935688186, 1.99721868422, 0
100039, -0.648935688186, 1.99721868422, 5
100040, -0.838665625486, 1.92526361016, 0
100041, -0.838665625486, 1.92526361016, 5
100042, -1.02056516781, 1.83533286851, 0
100043, -1.02056516781, 1.83533286851, 5
100044, -1.19293596813, 1.72826611837, 0
100045, -1.19293596813, 1.72826611837, 5
100046, -1.35416864674, 1.60506301314, 0
100047, -1.35416864674, 1.60506301314, 5
100048, -1.50275781756, 1.46687386702, 0
100049, -1.50275781756, 1.46687386702, 5
100050, -1.63731614353, 1.31498891483, 0
100051, -1.63731614353, 1.31498891483, 5
100052, -1.75658728982, 1.15082626544, 0
100053, -1.75658728982, 1.15082626544, 5
100054, -1.85945765387, 0.97591866129, 0
100055, -1.85945765387, 0.97591866129, 5
100056, -1.94496676281, 0.791899167544, 0
100057, -1.94496676281, 0.791899167544, 5
100058, -2.01231624113, 0.600485924636, 0
100059, -2.01231624113, 0.600485924636, 5
100060, -2.06087726489, 0.403466106442, 0
100061, -2.06087726489, 0.403466106442, 5
100062, -2.0901964329, 0.20267923392, 0
100063, -2.0901964329, 0.20267923392, 5
100064, -2.1, 2.5717582782e-16, 0
100065, -2.1, 2.5717582782e-16, 5
100066, -2.0901964329, -0.20267923392, 0
100067, -2.0901964329, -0.20267923392, 5
100068, -2.06087726489, -0.403466106442, 0
100069, -2.06087726489, -0.403466106442, 5
100070, -2.01231624113, -0.600485924636, 0
100071, -2.01231624113, -0.600485924636, 5
100072, -1.94496676281, -0.791899167544, 0
100073, -1.94496676281, -0.791899167544, 5
100074, -1.85945765387, -0.97591866129, 0
100075, -1.85945765387, -0.97591866129, 5
100076, -1.75658728982, -1.15082626544, 0
100077, -1.75658728982, -1.15082626544, 5
100078, -1.63731614353, -1.31498891483, 0
100079, -1.63731614353, -1.31498891483, 5
100080, -1.50275781756, -1.46687386702, 0
100081, -1.50275781756, -1.46687386702, 5
100082, -1.35416864674, -1.60506301314, 0
100083, -1.35416864674, -1.60506301314, 5
100084, -1.19293596813, -1.72826611837, 0
100085, -1.19293596813, -1.72826611837, 5
100086, -1.02056516781, -1.83533286851, 0
100087, -1.02056516781, -1.83533286851, 5
100088, -0.838665625486, -1.92526361016, 0
100089, -0.838665625486, -1.92526361016, 5
100090, -0.648935688186, -1.99721868422, 0
100091, -0.648935688186, -1.99721868422, 5
100092, -0.453146813211, -2.05052626554, 0
100093, -0.453146813211, -2.05052626554, 5
100094, -0.253127028536, -2.0846886356, 0
100095, -0.253127028536, -2.0846886356, 5
100096, -0.0507438649958, -2.09938682956, 0
100097, -0.0507438649958, -2.09938682956, 5
100098, 0.152113080339, -2.09448361435, 0
100099, 0.152113080339, -2.09448361435, 5
100100, 0.353549786828, -2.07002476995, 0
100101, 0.353549786828, -2.07002476995, 5
100102, 0.551685494216, -2.02623866202, 0
100103, 0.551685494216, -2.02623866202, 5
100104, 0.744670262788, -1.96353410964, 0
100105, 0.744670262788, -1.96353410964, 5
100106, 0.930702245756, -1.88249656832, 0
100107, 0.930702245756, -1.88249656832, 5
100108, 1.10804451262, -1.78388266375, 0
100109, 1.10804451262, -1.78388266375, 5
100110, 1.27504126642, -1.6686131274, 0
100111, 1.27504126642, -1.6686131274, 5
100112, 1.43013330345, -1.53776419985, 0
100113, 1.43013330345, -1.53776419985, 5
100114, 1.57187257116, -1.3925575823, 0
100115, 1.57187257116, -1.3925575823, 5
100116, 1.69893568818, -1.23434902981, 0
100117, 1.69893568818, -1.23434902981, 5
100118, 1.81013630044, -1.06461569301, 0
100119, 1.81013630044, -1.06461569301, 5
100120, 1.90443615778, -0.88494232632, 0
100121, 1.90443615778, -0.88494232632, 5
100122, 1.98095480784, -0.697006491568, 0
100123, 1.98095480784, -0.697006491568, 5
100124, 2.03897781659, -0.502562895003, 0
100125, 2.03897781659, -0.502562895003, 5
100126, 2.07796343884, -0.303427004095, 0
100127, 2.07796343884, -0.303427004095, 5
100128, 2.09754767634, -0.101458097003, 0
100129, 2.09754767634, -0.101458097003, 5
100130, 2.3, 0, 0.1
100131, 2.29148580235, 0.197719037096, 0.1
100132, 2.26600624553, 0.393974231617, 0.1
100133, 2.22374997129, 0.587312578766, 0.1
100134, 2.16502983028, 0.776302669065, 0.1
100135, 2.09028056588, 0.959545286007, 0.1
100136, 2.00005559549, 1.13568376537, 0.1
100137, 1.89502291324, 1.30341403947, 0.1
100138, 1.77596014434, 1.46149429204, 0.1
100139, 1.6437487879, 1.60875415222, 0.1
100140, 1.49936769052, 1.7441033595, 0.1
100141, 1.34388579934, 1.86653983571, 0.1
100142, 1.17845424789, 1.97515710403, 0.1
100143, 1.0042978335, 2.0691510002, 0.1
100144, 0.822705949315, 2.14782562629, 0.1
100145, 0.635023038123, 2.2105985029, 0.1
100146, 0.442638638532, 2.25700488162, 0.1
100147, 0.246977097327, 2.28670118585, 0.1
100148, 0.0494870241032, 2.29946755455, 0.1
100149, -0.148369433733, 2.29520946999, 0.1
100150, -0.345127416192, 2.27395845753, 0.1
100151, -0.539330196011, 2.23587185224, 0.1
100152, -0.729539963754, 2.18123163402, 0.1
100153, -0.914348472848, 2.11044233993, 0.1
100154, -1.09238746575, 2.02402806914, 0.1
100155, -1.26233880405, 1.92262860266, 0.1
100156, -1.4229442275, 1.80699466668, 0.1
100157, -1.57301466973, 1.6779823744, 0.1
100158, -1.7114390617, 1.53654688769, 0.1
100159, -1.83719255764, 1.38373534541, 0.1
100160, -1.94934412265, 1.22067911077, 0.1
100161, -2.0470634258, 1.04858539507, 0.1
100162, -2.12962698754, 0.868728319967, 0.1
100163, -2.19642353616, 0.682439484328, 0.1
100164, -2.24695853338, 0.491098105511, 0.1
100165, -2.28085783576, 0.29612080814, 0.1
100166, -2.29787046473, 0.0989511359102, 0.1
100167, -2.29787046473, -0.0989511359102, 0.1
100168, -2.28085783576, -0.29612080814, 0.1
100169, -2.24695853338, -0.491098105511, 0.1
100170, -2.19642353616, -0.682439484328, 0.1
100171, -2.12962698754, -0.868728319967, 0.1
100172, -2.0470634258, -1.04858539507, 0.1
100173, -1.94934412265, -1.22067911077, 0.1
100174, -1.83719255764, -1.38373534541, 0.1
100175, -1.7114390617, -1.53654688769, 0.1
100176, -1.57301466973, -1.6779823744, 0.1
100177, -1.4229442275, -1.80699466668, 0.1
100178, -1.26233880405, -1.92262860266, 0.1
100179, -1.09238746575, -2.02402806914, 0.1
100180, -0.914348472848, -2.11044233993, 0.1
100181, -0.729539963754, -2.18123163402, 0.1
100182, -0.539330196011, -2.23587185224, 0.1
100183, -0.345127416192, -2.27395845753, 0.1
100184, -0.148369433733, -2.29520946999, 0.1
100185, 0.0494870241032, -2.29946755455, 0.1
100186, 0.246977097327, -2.28670118585, 0.1
100187, 0.442638638532, -2.25700488162, 0.1
100188, 0.635023038123, -2.2105985029, 0.1
100189, 0.822705949315, -2.14782562629, 0.1
100190, 1.0042978335, -2.0691510002, 0.1
100191, 1.17845424789, -1.97515710403, 0.1
100192, 1.34388579934, -1.86653983571, 0.1
100193, 1.49936769052, -1.7441033595, 0.1
100194, 1.6437487879, -1.60875415222, 0.1
100195, 1.77596014434, -1.46149429204, 0.1
100196, 1.89502291324, -1.30341403947, 0.1
100197, 2.00005559549, -1.13568376537, 0.1
100198, 2.09028056588, -0.959545286007, 0.1
100199, 2.16502983028, -0.776302669065, 0.1
100200, 2.22374997129, -0.587312578766, 0.1
100201, 2.26600624553, -0.393974231617, 0.1
100202, 2.29148580235, -0.197719037096, 0.1
100203, 2.3, -5.63337527607e-16, 0.1
100204, 2.3, 0, 0.3
100205, 2.29148580235, 0.197719037096, 0.3
100206, 2.26600624553, 0.393974231617, 0.3
100207, 2.22374997129, 0.587312578766, 0.3
100208, 2.16502983028, 0.776302669065, 0.3
100209, 2.09028056588, 0.959545286007, 0.3
100210, 2.00005559549, 1.13568376537, 0.3
100211, 1.89502291324, 1.30341403947, 0.3
100212, 1.77596014434, 1.46149429204, 0.3
100213, 1.6437487879, 1.60875415222, 0.3
100214, 1.49936769052, 1.7441033595, 0.3
100215, 1.34388579934, 1.86653983571, 0.3
100216, 1.17845424789, 1.97515710403, 0.3
100217, 1.0042978335, 2.0691510002, 0.3
100218, 0.822705949315, 2.14782562629, 0.3
100219, 0.635023038123, 2.2105985029, 0.3
100220, 0.442638638532, 2.25700488162, 0.3
100221, 0.246977097327, 2.28670118585, 0.3
100222, 0.0494870241032, 2.29946755455, 0.3
100223, -0.148369433733, 2.29520946999, 0.3
100224, -0.345127416192, 2.27395845753, 0.3
100225, -0.539330196011, 2.23587185224, 0.3
100226, -0.729539963754, 2.18123163402, 0.3
100227, -0.914348472848, 2.11044233993, 0.3
100228, -1.09238746575, 2.02402806914, 0.3
100229, -1.26233880405, 1.92262860266, 0.3
100230, -1.4229442275, 1.80699466668, 0.3
100231, -1.57301466973, 1.6779823744, 0.3
100232, -1.7114390617, 1.53654688769, 0.3
100233, -1.83719255764, 1.38373534541, 0.3
100234, -1.94934412265, 1.22067911077, 0.3
100235, -2.0470634258, 1.04858539507, 0.3
100236, -2.12962698754, 0.868728319967, 0.3
100237, -2.19642353616, 0.682439484328, 0.3
100238, -2.24695853338, 0.491098105511, 0.3
100239, -2.28085783576, 0.29612080814, 0.3
100240, -2.29787046473, 0.0989511359102, 0.3
100241, -2.29787046473, -0.0989511359102, 0.3
100242, -2.28085783576, -0.29612080814, 0.3
100243, -2.24695853338, -0.491098105511, 0.3
100244, -2.19642353616, -0.682439484328, 0.3
100245, -2.12962698754, -0.868728319967, 0.3
100246, -2.0470634258, -1.04858539507, 0.3
100247, -1.94934412265, -1.22067911077, 0.3
100248, -1.83719255764, -1.38373534541, 0.3
100249, -1.7114390617, -1.53654688769, 0.3
100250, -1.57301466973, -1.6779823744, 0.3
100251, -1.4229442275, -1.80699466668, 0.3
100252, -1.26233880405, -1.92262860266, 0.3
100253, -1.09238746575, -2.02402806914, 0.3
100254, -0.914348472848, -2.11044233993, 0.3
100255, -0.729539963754, -2.18123163402, 0.3
100256, -0.539330196011, -2.23587185224, 0.3
100257, -0.345127416192, -2.27395845753, 0.3
100258, -0.148369433733, -2.29520946999, 0.3
100259, 0.0494870241032, -2.29946755455, 0.3
100260, 0.246977097327, -2.28670118585, 0.3
100261, 0.442638638532, -2.25700488162, 0.3
100262, 0.635023038123, -2.2105985029, 0.3
100263, 0.822705949315, -2.14782562629, 0.3
100264, 1.0042978335, -2.0691510002, 0.3
100265, 1.17845424789, -1.97515710403, 0.3
100266, 1.34388579934, -1.86653983571, 0.3
100267, 1.49936769052, -1.7441033595, 0.3
100268, 1.6437487879, -1.60875415222, 0.3
100269, 1.77596014434, -1.46149429204, 0.3
100270, 1.89502291324, -1.30341403947, 0.3
100271, 2.00005559549, -1.13568376537, 0.3
100272, 2.09028056588, -0.959545286007, 0.3
100273, 2.16502983028, -0.776302669065, 0.3
100274, 2.22374997129, -0.587312578766, 0.3
100275, 2.26600624553, -0.393974231617, 0.3
100276, 2.29148580235, -0.197719037096, 0.3
100277, 2.3, -5.63337527607e-16, 0.3
100278, 2.3, 0, 0.5
100279, 2.29148580235, 0.197719037096, 0.5
100280, 2.26600624553, 0.393974231617, 0.5
100281, 2.22374997129, 0.587312578766, 0.5
100282, 2.16502983028, 0.776302669065, 0.5
100283, 2.09028056588, 0.959545286007, 0.5
100284, 2.00005559549, 1.13568376537, 0.5
100285, 1.89502291324, 1.30341403947, 0.5
100286, 1.77596014434, 1.46149429204, 0.5
100287, 1.6437487879, 1.60875415222, 0.5
100288, 1.49936769052, 1.7441033595, 0.5
100289, 1.34388579934, 1.86653983571, 0.5
100290, 1.17845424789, 1.97515710403, 0.5
100291, 1.0042978335, 2.0691510002, 0.5
100292, 0.822705949315, 2.14782562629, 0.5
100293, 0.635023038123, 2.2105985029, 0.5
100294, 0.442638638532, 2.25700488162, 0.5
100295, 0.246977097327, 2.28670118585, 0.5
100296, 0.0494870241032, 2.29946755455, 0.5
100297, -0.148369433733, 2.29520946999, 0.5
100298, -0.345127416192, 2.27395845753, 0.5
100299, -0.539330196011, 2.23587185224, 0.5
100300, -0.729539963754, 2.18123163402, 0.5
100301, -0.914348472848, 2.11044233993, 0.5
100302, -1.09238746575, 2.02402806914, 0.5
100303, -1.26233880405, 1.92262860266, 0.5
100304, -1.4229442275, 1.80699466668, 0.5
100305, -1.57301466973, 1.6779823744, 0.5
100306, -1.7114390617, 1.53654688769, 0.5
100307, -1.83719255764, 1.38373534541, 0.5
100308, -1.94934412265, 1.22067911077, 0.5
100309, -2.0470634258, 1.04858539507, 0.5
100310, -2.12962698754, 0.868728319967, 0.5
100311, -2.19642353616, 0.682439484328, 0.5
100312, -2.24695853338, 0.491098105511, 0.5
100313, -2.28085783576, 0.29612080814, 0.5
100314, -2.29787046473, 0.0989511359102, 0.5
100315, -2.29787046473, -0.0989511359102, 0.5
100316, -2.28085783576, -0.29612080814, 0.5
100317, -2.24695853338, -0.491098105511, 0.5
100318, -2.19642353616, -0.682439484328, 0.5
100319, -2.12962698754, -0.868728319967, 0.5
100320, -2.0470634258, -1.04858539507, 0.5
100321, -1.94934412265, -1.22067911077, 0.5
100322, -1.83719255764, -1.38373534541, 0.5
100323, -1.7114390617, -1.53654688769, 0.5
100324, -1.57301466973, -1.6779823744, 0.5
100325, -1.4229442275, -1.80699466668, 0.5
100326, -1.26233880405, -1.92262860266, 0.5
100327, -1.09238746575, -2.02402806914, 0.5
100328, -0.914348472848, -2.11044233993, 0.5
100329, -0.729539963754, -2.18123163402, 0.5
100330, -0.539330196011, -2.23587185224, 0.5
100331, -0.345127416192, -2.27395845753, 0.5
100332, -0.148369433733, -2.29520946999, 0.5
100333, 0.0494870241032, -2.29946755455, 0.5
100334, 0.246977097327, -2.28670118585, 0.5
100335, 0.442638638532, -2.25700488162, 0.5
100336, 0.635023038123, -2.2105985029, 0.5
100337, 0.822705949315, -2.14782562629, 0.5
100338, 1.0042978335, -2.0691510002, 0.5
100339, 1.17845424789, -1.97515710403, 0.5
100340, 1.34388579934, -1.86653983571, 0.5
100341, 1.49936769052, -1.7441033595, 0.5
100342, 1.6437487879, -1.60875415222, 0.5
100343, 1.77596014434, -1.46149429204, 0.5
100344, 1.89502291324, -1.30341403947, 0.5
100345, 2.00005559549, -1.13568376537, 0.5
100346, 2.09028056588, -0.959545286007, 0.5
100347, 2.16502983028, -0.776302669065, 0.5
100348, 2.22374997129, -0.587312578766, 0.5
100349, 2.26600624553, -0.393974231617, 0.5
100350, 2.29148580235, -0.197719037096, 0.5
100351, 2.3, -5.63337527607e-16, 0.5
100352, 2.3, 0, 0.7
100353, 2.29148580235, 0.197719037096, 0.7
100354, 2.26600624553, 0.393974231617, 0.7
100355, 2.22374997129, 0.587312578766, 0.7
100356, 2.16502983028, 0.776302669065, 0.7
100357, 2.09028056588, 0.959545286007, 0.7
100358, 2.00005559549, 1.13568376537, 0.7
100359, 1.89502291324, 1.30341403947, 0.7
100360, 1.77596014434, 1.46149429204, 0.7
100361, 1.6437487879, 1.60875415222, 0.7
100362, 1.49936769052, 1.7441033595, 0.7
100363, 1.34388579934, 1.86653983571, 0.7
100364, 1.17845424789, 1.97515710403, 0.7
100365, 1.0042978335, 2.0691510002, 0.7
100366, 0.822705949315, 2.14782562629, 0.7
100367, 0.635023038123, 2.2105985029, 0.7
100368, 0.442638638532, 2.25700488162, 0.7
100369, 0.246977097327, 2.28670118585, 0.7
100370, 0.0494870241032, 2.29946755455, 0.7
100371, -0.148369433733, 2.29520946999, 0.7
100372, -0.345127416192, 2.27395845753, 0.7
100373, -0.539330196011, 2.23587185224, 0.7
100374, -0.729539963754, 2.18123163402, 0.7
100375, -0.914348472848, 2.11044233993, 0.7
100376, -1.09238746575, 2.02402806914, 0.7
100377, -1.26233880405, 1.92262860266, 0.7
100378, -1.4229442275, 1.80699466668, 0.7
100379, -1.57301466973, 1.6779823744, 0.7
100380, -1.7114390617, 1.53654688769, 0.7
100381, -1.83719255764, 1.38373534541, 0.7
100382, -1.94934412265, 1.22067911077, 0.7
100383, -2.0470634258, 1.04858539507, 0.7
100384, -2.12962698754, 0.868728319967, 0.7
100385, -2.19642353616, 0.682439484328, 0.7
100386, -2.24695853338, 0.491098105511, 0.7
100387, -2.28085783576, 0.29612080814, 0.7
100388, -2.29787046473, 0.0989511359102, 0.7
100389, -2.29787046473, -0.0989511359102, 0.7
100390, -2.28085783576, -0.29612080814, 0.7
100391, -2.24695853338, -0.491098105511, 0.7
100392, -2.19642353616, -0.682439484328, 0.7
100393, -2.12962698754, -0.868728319967, 0.7
100394, -2.0470634258, -1.04858539507, 0.7
100395, -1.94934412265, -1.22067911077, 0.7
100396, -1.83719255764, -1.38373534541, 0.7
100397, -1.7114390617, -1.53654688769, 0.7
100398, -1.57301466973, -1.6779823744, 0.7
100399, -1.4229442275, -1.80699466668, 0.7
100400, -1.26233880405, -1.92262860266, 0.7
100401, -1.09238746575, -2.02402806914, 0.7
100402, -0.914348472848, -2.11044233993, 0.7
100403, -0.729539963754, -2.18123163402, 0.7
100404, -0.539330196011, -2.23587185224, 0.7
100405, -0.345127416192, -2.27395845753, 0.7
100406, -0.148369433733, -2.29520946999, 0.7
100407, 0.0494870241032, -2.29946755455, 0.7
100408, 0.246977097327, -2.28670118585, 0.7
100409, 0.442638638532, -2.25700488162, 0.7
100410, 0.635023038123, -2.2105985029, 0.7
100411, 0.822705949315, -2.14782562629, 0.7
100412, 1.0042978335, -2.0691510002, 0.7
100413, 1.17845424789, -1.97515710403, 0.7
100414, 1.34388579934, -1.86653983571, 0.7
100415, 1.49936769052, -1.7441033595, 0.7
100416, 1.6437487879, -1.60875415222, 0.7
100417, 1.77596014434, -1.46149429204, 0.7
100418, 1.89502291324, -1.30341403947, 0.7
100419, 2.00005559549, -1.13568376537, 0.7
100420, 2.09028056588, -0.959545286007, 0.7
100421, 2.16502983028, -0.776302669065, 0.7
100422, 2.22374997129, -0.587312578766, 0.7
100423, 2.26600624553, -0.393974231617, 0.7
100424, 2.29148580235, -0.197719037096, 0.7
100425, 2.3, -5.63337527607e-16, 0.7
100426, 2.3, 0, 0.9
100427, 2.29148580235, 0.197719037096, 0.9
100428, 2.26600624553, 0.393974231617, 0.9
100429, 2.22374997129, 0.587312578766, 0.9
100430, 2.16502983028, 0.776302669065, 0.9
100431, 2.09028056588, 0.959545286007, 0.9
100432, 2.00005559549, 1.13568376537, 0.9
100433, 1.89502291324, 1.30341403947, 0.9
100434, 1.77596014434, 1.46149429204, 0.9
100435, 1.6437487879, 1.60875415222, 0.9
100436, 1.49936769052, 1.7441033595, 0.9
100437, 1.34388579934, 1.86653983571, 0.9
100438, 1.17845424789, 1.97515710403, 0.9
100439, 1.0042978335, 2.0691510002, 0.9
100440, 0.822705949315, 2.14782562629, 0.9
100441, 0.635023038123, 2.2105985029, 0.9
100442, 0.442638638532, 2.25700488162, 0.9
100443, 0.246977097327, 2.28670118585, 0.9
100444, 0.0494870241032, 2.29946755455, 0.9
100445, -0.148369433733, 2.29520946999, 0.9
100446, -0.345127416192, 2.27395845753, 0.9
100447, -0.539330196011, 2.23587185224, 0.9
100448, -0.729539963754, 2.18123163402, 0.9
100449, -0.914348472848, 2.11044233993, 0.9
100450, -1.09238746575, 2.02402806914, 0.9
100451, -1.26233880405, 1.92262860266, 0.9
100452, -1.4229442275, 1.80699466668, 0.9
100453, -1.57301466973, 1.6779823744, 0.9
100454, -1.7114390617, 1.53654688769, 0.9
100455, -1.83719255764, 1.38373534541, 0.9
100456, -1.94934412265, 1.22067911077, 0.9
100457, -2.0470634258, 1.04858539507, 0.9
100458, -2.12962698754, 0.868728319967, 0.9
100459, -2.19642353616, 0.682439484328, 0.9
100460, -2.24695853338, 0.491098105511, 0.9
100461, -2.28085783576, 0.29612080814, 0.9
100462, -2.29787046473, 0.0989511359102, 0.9
100463, -2.29787046473, -0.0989511359102, 0.9
100464, -2.28085783576, -0.29612080814, 0.9
100465, -2.24695853338, -0.491098105511, 0.9
100466, -2.19642353616, -0.682439484328, 0.9
100467, -2.12962698754, -0.868728319967, 0.9
100468, -2.0470634258, -1.04858539507, 0.9
100469, -1.94934412265, -1.22067911077, 0.9
100470, -1.83719255764, -1.38373534541, 0.9
100471, -1.7114390617, -1.53654688769, 0.9
100472, -1.57301466973, -1.6779823744, 0.9
100473, -1.4229442275, -1.80699466668, 0.9
100474, -1.26233880405, -1.92262860266, 0.9
100475, -1.09238746575, -2.02402806914, 0.9
100476, -0.914348472848, -2.11044233993, 0.9
100477, -0.729539963754, -2.18123163402, 0.9
100478, -0.539330196011, -2.23587185224, 0.9
100479, -0.345127416192, -2.27395845753, 0.9
100480, -0.148369433733, -2.29520946999, 0.9
100481, 0.0494870241032, -2.29946755455, 0.9
100482, 0.246977097327, -2.28670118585, 0.9
100483, 0.442638638532, -2.25700488162, 0.9
100484, 0.635023038123, -2.2105985029, 0.9
100485, 0.822705949315, -2.14782562629, 0.9
100486, 1.0042978335, -2.0691510002, 0.9
100487, 1.17845424789, -1.97515710403, 0.9
100488, 1.34388579934, -1.86653983571, 0.9
100489, 1.49936769052, -1.7441033595, 0.9
100490, 1.6437487879, -1.60875415222, 0.9
100491, 1.77596014434, -1.46149429204, 0.9
100492, 1.89502291324, -1.30341403947, 0.9
100493, 2.00005559549, -1.13568376537, 0.9
100494, 2.09028056588, -0.959545286007, 0.9
100495, 2.16502983028, -0.776302669065, 0.9
100496, 2.22374997129, -0.587312578766, 0.9
100497, 2.26600624553, -0.393974231617, 0.9
100498, 2.29148580235, -0.197719037096, 0.9
100499, 2.3, -5.63337527607e-16, 0.9
100500, 2.3, 0, 1.1
100501, 2.29148580235, 0.197719037096, 1.1
100502, 2.26600624553, 0.393974231617, 1.1
100503, 2.22374997129, 0.587312578766, 1.1
100504, 2.16502983028, 0.776302669065, 1.1
100505, 2.09028056588, 0.959545286007, 1.1
100506, 2.00005559549, 1.13568376537, 1.1
100507, 1.89502291324, 1.30341403947, 1.1
100508, 1.77596014434, 1.46149429204, 1.1
100509, 1.6437487879, 1.60875415222, 1.1
100510, 1.49936769052, 1.7441033595, 1.1
100511, 1.34388579934, 1.86653983571, 1.1
100512, 1.17845424789, 1.97515710403, 1.1
100513, 1.0042978335, 2.0691510002, 1.1
100514, 0.822705949315, 2.14782562629, 1.1
100515, 0.635023038123, 2.2105985029, 1.1
100516, 0.442638638532, 2.25700488162, 1.1
100517, 0.246977097327, 2.28670118585, 1.1
100518, 0.0494870241032, 2.29946755455, 1.1
100519, -0.148369433733, 2.29520946999, 1.1
100520, -0.345127416192, 2.27395845753, 1.1
100521, -0.539330196011, 2.23587185224, 1.1
100522, -0.729539963754, 2.18123163402, 1.1
100523, -0.914348472848, 2.11044233993, 1.1
100524, -1.09238746575, 2.02402806914, 1.1
100525, -1.26233880405, 1.92262860266, 1.1
100526, -1.4229442275, 1.80699466668, 1.1
100527, -1.57301466973, 1.6779823744, 1.1
100528, -1.7114390617, 1.53654688769, 1.1
100529, -1.83719255764, 1.38373534541, 1.1
100530, -1.94934412265, 1.22067911077, 1.1
100531, -2.0470634258, 1.04858539507, 1.1
100532, -2.12962698754, 0.868728319967, 1.1
100533, -2.19642353616, 0.682439484328, 1.1
100534, -2.24695853338, 0.491098105511, 1.1
100535, -2.28085783576, 0.29612080814, 1.1
100536, -2.29787046473, 0.0989511359102, 1.1
100537, -2.29787046473, -0.0989511359102, 1.1
100538, -2.28085783576, -0.29612080814, 1.1
100539, -2.24695853338, -0.491098105511, 1.1
100540, -2.19642353616, -0.682439484328, 1.1
100541, -2.12962698754, -0.868728319967, 1.1
100542, -2.0470634258, -1.04858539507, 1.1
100543, -1.94934412265, -1.22067911077, 1.1
100544, -1.83719255764, -1.38373534541, 1.1
100545, -1.7114390617, -1.53654688769, 1.1
100546, -1.57301466973, -1.6779823744, 1.1
100547, -1.4229442275, -1.80699466668, 1.1
100548, -1.26233880405, -1.92262860266, 1.1
100549, -1.09238746575, -2.02402806914, 1.1
100550, -0.914348472848, -2.11044233993, 1.1
100551, -0.729539963754, -2.18123163402, 1.1
100552, -0.539330196011, -2.23587185224, 1.1
100553, -0.345127416192, -2.27395845753, 1.1
100554, -0.148369433733, -2.29520946999, 1.1
100555, 0.0494870241032, -2.29946755455, 1.1
100556, 0.246977097327, -2.28670118585, 1.1
100557, 0.442638638532, -2.25700488162, 1.1
100558, 0.635023038123, -2.2105985029, 1.1
100559, 0.822705949315, -2.14782562629, 1.1
100560, 1.0042978335, -2.0691510002, 1.1
100561, 1.17845424789, -1.97515710403, 1.1
100562, 1.34388579934, -1.86653983571, 1.1
100563, 1.49936769052, -1.7441033595, 1.1
100564, 1.6437487879, -1.60875415222, 1.1
100565, 1.77596014434, -1.46149429204, 1.1
100566, 1.89502291324, -1.30341403947, 1.1
100567, 2.00005559549, -1.13568376537, 1.1
100568, 2.09028056588, -0.959545286007, 1.1
100569, 2.16502983028, -0.776302669065, 1.1
100570, 2.22374997129, -0.587312578766, 1.1
100571, 2.26600624553, -0.393974231617, 1.1
100572, 2.29148580235, -0.197719037096, 1.1
100573, 2.3, -5.63337527607e-16, 1.1
100574, 2.3, 0, 1.3
100575, 2.29148580235, 0.197719037096, 1.3
100576, 2.26600624553, 0.393974231617, 1.3
100577, 2.22374997129, 0.587312578766, 1.3
100578, 2.16502983028, 0.776302669065, 1.3
100579, 2.09028056588, 0.959545286007, 1.3
100580, 2.00005559549, 1.13568376537, 1.3
100581, 1.89502291324, 1.30341403947, 1.3
100582, 1.77596014434, 1.46149429204, 1.3
100583, 1.6437487879, 1.60875415222, 1.3
100584, 1.49936769052, 1.7441033595, 1.3
100585, 1.34388579934, 1.86653983571, 1.3
100586, 1.17845424789, 1.97515710403, 1.3
100587, 1.0042978335, 2.0691510002, 1.3
100588, 0.822705949315, 2.14782562629, 1.3
100589, 0.635023038123, 2.2105985029, 1.3
100590, 0.442638638532, 2.25700488162, 1.3
100591, 0.246977097327, 2.28670118585, 1.3
100592, 0.0494870241032, 2.29946755455, 1.3
100593, -0.148369433733, 2.29520946999, 1.3
100594, -0.345127416192, 2.27395845753, 1.3
100595, -0.539330196011, 2.23587185224, 1.3
100596, -0.729539963754, 2.18123163402, 1.3
100597, -0.914348472848, 2.11044233993, 1.3
100598, -1.09238746575, 2.02402806914, 1.3
100599, -1.26233880405, 1.92262860266, 1.3
100600, -1.4229442275, 1.80699466668, 1.3
100601, -1.57301466973, 1.6779823744, 1.3
100602, -1.7114390617, 1.53654688769, 1.3
100603, -1.83719255764, 1.38373534541, 1.3
100604, -1.94934412265, 1.22067911077, 1.3
100605, -2.0470634258, 1.04858539507, 1.3
100606, -2.12962698754, 0.868728319967, 1.3
100607, -2.19642353616, 0.682439484328, 1.3
100608, -2.24695853338, 0.491098105511, 1.3
100609, -2.28085783576, 0.29612080814, 1.3
100610, -2.29787046473, 0.0989511359102, 1.3
100611, -2.29787046473, -0.0989511359102, 1.3
100612, -2.28085783576, -0.29612080814, 1.3
100613, -2.24695853338, -0.491098105511, 1.3
100614, -2.19642353616, -0.682439484328, 1.3
100615, -2.12962698754, -0.868728319967, 1.3
100616, -2.0470634258, -1.04858539507, 1.3
100617, -1.94934412265, -1.22067911077, 1.3
100618, -1.83719255764, -1.38373534541, 1.3
100619, -1.7114390617, -1.53654688769, 1.3
100620, -1.57301466973, -1.6779823744, 1.3
100621, -1.4229442275, -1.80699466668, 1.3
100622, -1.26233880405, -1.92262860266, 1.3
100623, -1.09238746575, -2.02402806914, 1.3
100624, -0.914348472848, -2.11044233993, 1.3
100625, -0.729539963754, -2.18123163402, 1.3
100626, -0.539330196011, -2.23587185224, 1.3
100627, -0.345127416192, -2.27395845753, 1.3
100628, -0.148369433733, -2.29520946999, 1.3
100629, 0.0494870241032, -2.29946755455, 1.3
100630, 0.246977097327, -2.28670118585, 1.3
100631, 0.442638638532, -2.25700488162, 1.3
100632, 0.635023038123, -2.2105985029, 1.3
100633, 0.822705949315, -2.14782562629, 1.3
100634, 1.0042978335, -2.0691510002, 1.3
100635, 1.17845424789, -1.97515710403, 1.3
100636, 1.34388579934, -1.86653983571, 1.3
100637, 1.49936769052, -1.7441033595, 1.3
100638, 1.6437487879, -1.60875415222, 1.3
100639, 1.77596014434, -1.46149429204, 1.3
100640, 1.89502291324, -1.30341403947, 1.3
100641, 2.00005559549, -1.13568376537, 1.3
100642, 2.09028056588, -0.959545286007, 1.3
100643, 2.16502983028, -0.776302669065, 1.3
100644, 2.22374997129, -0.587312578766, 1.3
100645, 2.26600624553, -0.393974231617, 1.3
100646, 2.29148580235, -0.197719037096, 1.3
100647, 2.3, -5.63337527607e-16, 1.3
100648, 2.3, 0, 1.5
100649, 2.29148580235, 0.197719037096, 1.5
100650, 2.26600624553, 0.393974231617, 1.5
100651, 2.22374997129, 0.587312578766, 1.5
100652, 2.16502983028, 0.776302669065, 1.5
100653, 2.09028056588, 0.959545286007, 1.5
100654, 2.00005559549, 1.13568376537, 1.5
100655, 1.89502291324, 1.30341403947, 1.5
100656, 1.77596014434, 1.46149429204, 1.5
100657, 1.6437487879, 1.60875415222, 1.5
100658, 1.49936769052, 1.7441033595, 1.5
100659, 1.34388579934, 1.86653983571, 1.5
100660, 1.17845424789, 1.97515710403, 1.5
100661, 1.0042978335, 2.0691510002, 1.5
100662, 0.822705949315, 2.14782562629, 1.5
100663, 0.635023038123, 2.2105985029, 1.5
100664, 0.442638638532, 2.25700488162, 1.5
100665, 0.246977097327, 2.28670118585, 1.5
100666, 0.0494870241032, 2.29946755455, 1.5
100667, -0.148369433733, 2.29520946999, 1.5
100668, -0.345127416192, 2.27395845753, 1.5
100669, -0.539330196011, 2.23587185224, 1.5
100670, -0.729539963754, 2.18123163402, 1.5
100671, -0.914348472848, 2.11044233993, 1.5
100672, -1.09238746575, 2.02402806914, 1.5
100673, -1.26233880405, 1.92262860266, 1.5
100674, -1.4229442275, 1.80699466668, 1.5
100675, -1.57301466973, 1.6779823744, 1.5
100676, -1.7114390617, 1.53654688769, 1.5
100677, -1.83719255764, 1.38373534541, 1.5
100678, -1.94934412265, 1.22067911077, 1.5
100679, -2.0470634258, 1.04858539507, 1.5
100680, -2.12962698754, 0.868728319967, 1.5
100681, -2.19642353616, 0.682439484328, 1.5
100682, -2.24695853338, 0.491098105511, 1.5
100683, -2.28085783576, 0.29612080814, 1.5
100684, -2.29787046473, 0.0989511359102, 1.5
100685, -2.29787046473, -0.0989511359102, 1.5
100686, -2.28085783576, -0.29612080814, 1.5
100687, -2.24695853338, -0.491098105511, 1.5
100688, -2.19642353616, -0.682439484328, 1.5
100689, -2.12962698754, -0.868728319967, 1.5
100690, -2.0470634258, -1.04858539507, 1.5
100691, -1.94934412265, -1.22067911077, 1.5
100692, -1.83719255764, -1.38373534541, 1.5
100693, -1.7114390617, -1.53654688769, 1.5
100694, -1.57301466973, -1.6779823744, 1.5
100695, -1.4229442275, -1.80699466668, 1.5
100696, -1.26233880405, -1.92262860266, 1.5
100697, -1.09238746575, -2.02402806914, 1.5
100698, -0.914348472848, -2.11044233993, 1.5
100699, -0.729539963754, -2.18123163402, 1.5
100700, -0.539330196011, -2.23587185224, 1.5
100701, -0.345127416192, -2.27395845753, 1.5
100702, -0.148369433733, -2.29520946999, 1.5
100703, 0.0494870241032, -2.29946755455, 1.5
100704, 0.246977097327, -2.28670118585, 1.5
100705, 0.442638638532, -2.25700488162, 1.5
100706, 0.635023038123, -2.2105985029, 1.5
100707, 0.822705949315, -2.14782562629, 1.5
100708, 1.0042978335, -2.0691510002, 1.5
100709, 1.17845424789, -1.97515710403, 1.5
100710, 1.34388579934, -1.86653983571, 1.5
100711, 1.49936769052, -1.7441033595, 1.5
100712, 1.6437487879, -1.60875415222, 1.5
100713, 1.77596014434, -1.46149429204, 1.5
100714, 1.89502291324, -1.30341403947, 1.5
100715, 2.00005559549, -1.13568376537, 1.5
100716, 2.09028056588, -0.959545286007, 1.5
100717, 2.16502983028, -0.776302669065, 1.5
100718, 2.22374997129, -0.587312578766, 1.5
100719, 2.26600624553, -0.393974231617, 1.5
100720, 2.29148580235, -0.197719037096, 1.5
100721, 2.3, -5.63337527607e-16, 1.5
100722, 2.3, 0, 1.7
100723, 2.29148580235, 0.197719037096, 1.7
100724, 2.26600624553, 0.393974231617, 1.7
100725, 2.22374997129, 0.587312578766, 1.7
100726, 2.16502983028, 0.776302669065, 1.7
100727, 2.09028056588, 0.959545286007, 1.7
100728, 2.00005559549, 1.13568376537, 1.7
100729, 1.89502291324, 1.30341403947, 1.7
100730, 1.77596014434, 1.46149429204, 1.7
100731, 1.6437487879, 1.60875415222, 1.7
100732, 1.49936769052, 1.7441033595, 1.7
100733, 1.34388579934, 1.86653983571, 1.7
100734, 1.17845424789, 1.97515710403, 1.7
100735, 1.0042978335, 2.0691510002, 1.7
100736, 0.822705949315, 2.14782562629, 1.7
100737, 0.635023038123, 2.2105985029, 1.7
100738, 0.442638638532, 2.25700488162, 1.7
100739, 0.246977097327, 2.28670118585, 1.7
100740, 0.0494870241032, 2.29946755455, 1.7
100741, -0.148369433733, 2.29520946999, 1.7
100742, -0.345127416192, 2.27395845753, 1.7
100743, -0.539330196011, 2.23587185224, 1.7
100744, -0.729539963754, 2.18123163402, 1.7
100745, -0.914348472848, 2.11044233993, 1.7
100746, -1.09238746575, 2.02402806914, 1.7
100747, -1.26233880405, 1.92262860266, 1.7
100748, -1.4229442275, 1.80699466668, 1.7
100749, -1.57301466973, 1.6779823744, 1.7
100750, -1.7114390617, 1.53654688769, 1.7
100751, -1.83719255764, 1.38373534541, 1.7
100752, -1.94934412265, 1.22067911077, 1.7
100753, -2.0470634258, 1.04858539507, 1.7
100754, -2.12962698754, 0.868728319967, 1.7
100755, -2.19642353616, 0.682439484328, 1.7
100756, -2.24695853338, 0.491098105511, 1.7
100757, -2.28085783576, 0.29612080814, 1.7
100758, -2.29787046473, 0.0989511359102, 1.7
100759, -2.29787046473, -0.0989511359102, 1.7
100760, -2.28085783576, -0.29612080814, 1.7
100761, -2.24695853338, -0.491098105511, 1.7
100762, -2.19642353616, -0.682439484328, 1.7
100763, -2.12962698754, -0.868728319967, 1.7
100764, -2.0470634258, -1.04858539507, 1.7
100765, -1.94934412265, -1.22067911077, 1.7
100766, -1.83719255764, -1.38373534541, 1.7
100767, -1.7114390617, -1.53654688769, 1.7
100768, -1.57301466973, -1.6779823744, 1.7
100769, -1.4229442275, -1.80699466668, 1.7
100770, -1.26233880405, -1.92262860266, 1.7
100771, -1.09238746575, -2.02402806914, 1.7
100772, -0.914348472848, -2.11044233993, 1.7
100773, -0.729539963754, -2.18123163402, 1.7
100774, -0.539330196011, -2.23587185224, 1.7
100775, -0.345127416192, -2.27395845753, 1.7
100776, -0.148369433733, -2.29520946999, 1.7
100777, 0.0494870241032, -2.29946755455, 1.7
100778, 0.246977097327, -2.28670118585, 1.7
100779, 0.442638638532, -2.25700488162, 1.7
100780, 0.635023038123, -2.2105985029, 1.7
100781, 0.822705949315, -2.14782562629, 1.7
100782, 1.0042978335, -2.0691510002, 1.7
100783, 1.17845424789, -1.97515710403, 1.7
100784, 1.34388579934, -1.86653983571, 1.7
100785, 1.49936769052, -1.7441033595, 1.7
100786, 1.6437487879, -1.60875415222, 1.7
100787, 1.77596014434, -1.46149429204, 1.7
100788, 1.89502291324, -1.30341403947, 1.7
100789, 2.00005559549, -1.13568376537, 1.7
100790, 2.09028056588, -0.959545286007, 1.7
100791, 2.16502983028, -0.776302669065, 1.7
100792, 2.22374997129, -0.587312578766, 1.7
100793, 2.26600624553, -0.393974231617, 1.7
100794, 2.29148580235, -0.197719037096, 1.7
100795, 2.3, -5.63337527607e-16, 1.7
100796, 2.3, 0, 1.9
100797, 2.29148580235, 0.197719037096, 1.9
100798, 2.26600624553, 0.393974231617, 1.9
100799, 2.22374997129, 0.587312578766, 1.9
100800, 2.16502983028, 0.776302669065, 1.9
100801, 2.09028056588, 0.959545286007, 1.9
100802, 2.00005559549, 1.13568376537, 1.9
100803, 1.89502291324, 1.30341403947, 1.9
100804, 1.77596014434, 1.46149429204, 1.9
100805, 1.6437487879, 1.60875415222, 1.9
100806, 1.49936769052, 1.7441033595, 1.9
100807, 1.34388579934, 1.86653983571, 1.9
100808, 1.17845424789, 1.97515710403, 1.9
100809, 1.0042978335, 2.0691510002, 1.9
100810, 0.822705949315, 2.14782562629, 1.9
100811, 0.635023038123, 2.2105985029, 1.9
100812, 0.442638638532, 2.25700488162, 1.9
100813, 0.246977097327, 2.28670118585, 1.9
100814, 0.0494870241032, 2.29946755455, 1.9
100815, -0.148369433733, 2.29520946999, 1.9
100816, -0.345127416192, 2.27395845753, 1.9
100817, -0.539330196011, 2.23587185224, 1.9
100818, -0.729539963754, 2.18123163402, 1.9
100819, -0.914348472848, 2.11044233993, 1.9
100820, -1.09238746575, 2.02402806914, 1.9
100821, -1.26233880405, 1.92262860266, 1.9
100822, -1.4229442275, 1.80699466668, 1.9
100823, -1.57301466973, 1.6779823744, 1.9
100824, -1.7114390617, 1.53654688769, 1.9
100825, -1.83719255764, 1.38373534541, 1.9
100826, -1.94934412265, 1.22067911077, 1.9
100827, -2.0470634258, 1.04858539507, 1.9
100828, -2.12962698754, 0.868728319967, 1.9
100829, -2.19642353616, 0.682439484328, 1.9
100830, -2.24695853338, 0.491098105511, 1.9
100831, -2.28085783576, 0.29612080814, 1.9
100832, -2.29787046473, 0.0989511359102, 1.9
100833, -2.29787046473, -0.0989511359102, 1.9
100834, -2.28085783576, -0.29612080814, 1.9
100835, -2.24695853338, -0.491098105511, 1.9
100836, -2.19642353616, -0.682439484328, 1.9
100837, -2.12962698754, -0.868728319967, 1.9
100838, -2.0470634258, -1.04858539507, 1.9
100839, -1.94934412265, -1.22067911077, 1.9
100840, -1.83719255764, -1.38373534541, 1.9
100841, -1.7114390617, -1.53654688769, 1.9
100842, -1.57301466973, -1.6779823744, 1.9
100843, -1.4229442275, -1.80699466668, 1.9
100844, -1.26233880405, -1.92262860266, 1.9
100845, -1.09238746575, -2.02402806914, 1.9
100846, -0.914348472848, -2.11044233993, 1.9
100847, -0.729539963754, -2.18123163402, 1.9
100848, -0.539330196011, -2.23587185224, 1.9
100849, -0.345127416192, -2.27395845753, 1.9
100850, -0.148369433733, -2.29520946999, 1.9
100851, 0.0494870241032, -2.29946755455, 1.9
100852, 0.246977097327, -2.28670118585, 1.9
100853, 0.442638638532, -2.25700488162, 1.9
100854, 0.635023038123, -2.2105985029, 1.9
100855, 0.822705949315, -2.14782562629, 1.9
100856, 1.0042978335, -2.0691510002, 1.9
100857, 1.17845424789, -1.97515710403, 1.9
100858, 1.34388579934, -1.86653983571, 1.9
100859, 1.49936769052, -1.7441033595, 1.9
100860, 1.6437487879, -1.60875415222, 1.9
100861, 1.77596014434, -1.46149429204, 1.9
100862, 1.89502291324, -1.30341403947, 1.9
100863, 2.00005559549, -1.13568376537, 1.9
100864, 2.09028056588, -0.959545286007, 1.9
100865, 2.16502983028, -0.776302669065, 1.9
100866, 2.22374997129, -0.587312578766, 1.9
100867, 2.26600624553, -0.393974231617, 1.9
100868, 2.29148580235, -0.197719037096, 1.9
100869, 2.3, -5.63337527607e-16, 1.9
100870, 2.3, 0, 2.1
100871, 2.29148580235, 0.197719037096, 2.1
100872, 2.26600624553, 0.393974231617, 2.1
100873, 2.22374997129, 0.587312578766, 2.1
100874, 2.16502983028, 0.776302669065, 2.1
100875, 2.09028056588, 0.959545286007, 2.1
100876, 2.00005559549, 1.13568376537, 2.1
100877, 1.89502291324, 1.30341403947, 2.1
100878, 1.77596014434, 1.46149429204, 2.1
100879, 1.6437487879, 1.60875415222, 2.1
100880, 1.49936769052, 1.7441033595, 2.1
100881, 1.34388579934, 1.86653983571, 2.1
100882, 1.17845424789, 1.97515710403, 2.1
100883, 1.0042978335, 2.0691510002, 2.1
100884, 0.822705949315, 2.14782562629, 2.1
100885, 0.635023038123, 2.2105985029, 2.1
100886, 0.442638638532, 2.25700488162, 2.1
100887, 0.246977097327, 2.28670118585, 2.1
100888, 0.0494870241032, 2.29946755455, 2.1
100889, -0.148369433733, 2.29520946999, 2.1
100890, -0.345127416192, 2.27395845753, 2.1
100891, -0.539330196011, 2.23587185224, 2.1
100892, -0.729539963754, 2.18123163402, 2.1
100893, -0.914348472848, 2.11044233993, 2.1
100894, -1.09238746575, 2.02402806914, 2.1
100895, -1.26233880405, 1.92262860266, 2.1
100896, -1.4229442275, 1.80699466668, 2.1
100897, -1.57301466973, 1.6779823744, 2.1
100898, -1.7114390617, 1.53654688769, 2.1
100899, -1.83719255764, 1.38373534541, 2.1
100900, -1.94934412265, 1.22067911077, 2.1
100901, -2.0470634258, 1.04858539507, 2.1
100902, -2.12962698754, 0.868728319967, 2.1
100903, -2.19642353616, 0.682439484328, 2.1
100904, -2.24695853338, 0.491098105511, 2.1
100905, -2.28085783576, 0.29612080814, 2.1
100906, -2.29787046473, 0.0989511359102, 2.1
100907, -2.29787046473, -0.0989511359102, 2.1
100908, -2.28085783576, -0.29612080814, 2.1
100909, -2.24695853338, -0.491098105511, 2.1
100910, -2.19642353616, -0.682439484328, 2.1
100911, -2.12962698754, -0.868728319967, 2.1
100912, -2.0470634258, -1.04858539507, 2.1
100913, -1.94934412265, -1.22067911077, 2.1
100914, -1.83719255764, -1.38373534541, 2.1
100915, -1.7114390617, -1.53654688769, 2.1
100916, -1.57301466973, -1.6779823744, 2.1
100917, -1.4229442275, -1.80699466668, 2.1
100918, -1.26233880405, -1.92262860266, 2.1
100919, -1.09238746575, -2.02402806914, 2.1
100920, -0.914348472848, -2.11044233993, 2.1
100921, -0.729539963754, -2.18123163402, 2.1
100922, -0.539330196011, -2.23587185224, 2.1
100923, -0.345127416192, -2.27395845753, 2.1
100924, -0.148369433733, -2.29520946999, 2.1
100925, 0.0494870241032, -2.29946755455, 2.1
100926, 0.246977097327, -2.28670118585, 2.1
100927, 0.442638638532, -2.25700488162, 2.1
100928, 0.635023038123, -2.2105985029, 2.1
100929, 0.822705949315, -2.14782562629, 2.1
100930, 1.0042978335, -2.0691510002, 2.1
100931, 1.17845424789, -1.97515710403, 2.1
100932, 1.34388579934, -1.86653983571, 2.1
100933, 1.49936769052, -1.7441033595, 2.1
100934, 1.6437487879, -1.60875415222, 2.1
100935, 1.77596014434, -1.46149429204, 2.1
100936, 1.89502291324, -1.30341403947, 2.1
100937, 2.00005559549, -1.13568376537, 2.1
100938, 2.09028056588, -0.959545286007, 2.1
100939, 2.16502983028, -0.776302669065, 2.1
100940, 2.22374997129, -0.587312578766, 2.1
100941, 2.26600624553, -0.393974231617, 2.1
100942, 2.29148580235, -0.197719037096, 2.1
100943, 2.3, -5.63337527607e-16, 2.1
100944, 2.3, 0, 2.3
100945, 2.29148580235, 0.197719037096, 2.3
100946, 2.26600624553, 0.393974231617, 2.3
100947, 2.22374997129, 0.587312578766, 2.3
100948, 2.16502983028, 0.776302669065, 2.3
100949, 2.09028056588, 0.959545286007, 2.3
100950, 2.00005559549, 1.13568376537, 2.3
100951, 1.89502291324, 1.30341403947, 2.3
100952, 1.77596014434, 1.46149429204, 2.3
100953, 1.6437487879, 1.60875415222, 2.3
100954, 1.49936769052, 1.7441033595, 2.3
100955, 1.34388579934, 1.86653983571, 2.3
100956, 1.17845424789, 1.97515710403, 2.3
100957, 1.0042978335, 2.0691510002, 2.3
100958, 0.822705949315, 2.14782562629, 2.3
100959, 0.635023038123, 2.2105985029, 2.3
100960, 0.442638638532, 2.25700488162, 2.3
100961, 0.246977097327, 2.28670118585, 2.3
100962, 0.0494870241032, 2.29946755455, 2.3
100963, -0.148369433733, 2.29520946999, 2.3
100964, -0.345127416192, 2.27395845753, 2.3
100965, -0.539330196011, 2.23587185224, 2.3
100966, -0.729539963754, 2.18123163402, 2.3
100967, -0.914348472848, 2.11044233993, 2.3
100968, -1.09238746575, 2.02402806914, 2.3
100969, -1.26233880405, 1.92262860266, 2.3
100970, -1.4229442275, 1.80699466668, 2.3
100971, -1.57301466973, 1.6779823744, 2.3
100972, -1.7114390617, 1.53654688769, 2.3
100973, -1.83719255764, 1.38373534541, 2.3
100974, -1.94934412265, 1.22067911077, 2.3
100975, -2.0470634258, 1.04858539507, 2.3
100976, -2.12962698754, 0.868728319967, 2.3
100977, -2.19642353616, 0.682439484328, 2.3
100978, -2.24695853338, 0.491098105511, 2.3
100979, -2.28085783576, 0.29612080814, 2.3
100980, -2.29787046473, 0.0989511359102, 2.3
100981, -2.29787046473, -0.0989511359102, 2.3
100982, -2.28085783576, -0.29612080814, 2.3
100983, -2.24695853338, -0.491098105511, 2.3
100984, -2.19642353616, -0.682439484328, 2.3
100985, -2.12962698754, -0.868728319967, 2.3
100986, -2.0470634258, -1.04858539507, 2.3
100987, -1.94934412265, -1.22067911077, 2.3
100988, -1.83719255764, -1.38373534541, 2.3
100989, -1.7114390617, -1.53654688769, 2.3
100990, -1.57301466973, -1.6779823744, 2.3
100991, -1.4229442275, -1.80699466668, 2.3
100992, -1.26233880405, -1.92262860266, 2.3
100993, -1.09238746575, -2.02402806914, 2.3
100994, -0.914348472848, -2.11044233993, 2.3
100995, -0.729539963754, -2.18123163402, 2.3
100996, -0.539330196011, -2.23587185224, 2.3
100997, -0.345127416192, -2.27395845753, 2.3
100998, -0.148369433733, -2.29520946999, 2.3
100999, 0.0494870241032, -2.29946755455, 2.3
101000, 0.246977097327, -2.28670118585, 2.3
101001, 0.442638638532, -2.25700488162, 2.3
101002, 0.635023038123, -2.2105985029, 2.3
101003, 0.822705949315, -2.14782562629, 2.3
101004, 1.0042978335, -2.0691510002, 2.3
101005, 1.17845424789, -1.97515710403, 2.3
101006, 1.34388579934, -1.86653983571, 2.3
101007, 1.49936769052, -1.7441033595, 2.3
101008, 1.6437487879, -1.60875415222, 2.3
101009, 1.77596014434, -1.46149429204, 2.3
101010, 1.89502291324, -1.30341403947, 2.3
101011, 2.00005559549, -1.13568376537, 2.3
101012, 2.09028056588, -0.959545286007, 2.3
101013, 2.16502983028, -0.776302669065, 2.3
101014, 2.22374997129, -0.587312578766, 2.3
101015, 2.26600624553, -0.393974231617, 2.3
101016, 2.29148580235, -0.197719037096, 2.3
101017, 2.3, -5.63337527607e-16, 2.3
101018, 2.3, 0, 2.5
101019, 2.29148580235, 0.197719037096, 2.5
101020, 2.26600624553, 0.393974231617, 2.5
101021, 2.22374997129, 0.587312578766, 2.5
101022, 2.16502983028, 0.776302669065, 2.5
101023, 2.09028056588, 0.959545286007, 2.5
101024, 2.00005559549, 1.13568376537, 2.5
101025, 1.89502291324, 1.30341403947, 2.5
101026, 1.77596014434, 1.46149429204, 2.5
101027, 1.6437487879, 1.60875415222, 2.5
101028, 1.49936769052, 1.7441033595, 2.5
101029, 1.34388579934, 1.86653983571, 2.5
101030, 1.17845424789, 1.97515710403, 2.5
101031, 1.0042978335, 2.0691510002, 2.5
101032, 0.822705949315, 2.14782562629, 2.5
101033, 0.635023038123, 2.2105985029, 2.5
101034, 0.442638638532, 2.25700488162, 2.5
101035, 0.246977097327, 2.28670118585, 2.5
101036, 0.0494870241032, 2.29946755455, 2.5
101037, -0.148369433733, 2.29520946999, 2.5
101038, -0.345127416192, 2.27395845753, 2.5
101039, -0.539330196011, 2.23587185224, 2.5
101040, -0.729539963754, 2.18123163402, 2.5
101041, -0.914348472848, 2.11044233993, 2.5
101042, -1.09238746575, 2.02402806914, 2.5
101043, -1.26233880405, 1.92262860266, 2.5
101044, -1.4229442275, 1.80699466668, 2.5
101045, -1.57301466973, 1.6779823744, 2.5
101046, -1.7114390617, 1.53654688769, 2.5
101047, -1.83719255764, 1.38373534541, 2.5
101048, -1.94934412265, 1.22067911077, 2.5
101049, -2.0470634258, 1.04858539507, 2.5
101050, -2.12962698754, 0.868728319967, 2.5
101051, -2.19642353616, 0.682439484328, 2.5
101052, -2.24695853338, 0.491098105511, 2.5
101053, -2.28085783576, 0.29612080814, 2.5
101054, -2.29787046473, 0.0989511359102, 2.5
101055, -2.29787046473, -0.0989511359102, 2.5
101056, -2.28085783576, -0.29612080814, 2.5
101057, -2.24695853338, -0.491098105511, 2.5
101058, -2.19642353616, -0.682439484328, 2.5
101059, -2.12962698754, -0.868728319967, 2.5
101060, -2.0470634258, -1.04858539507, 2.5
101061, -1.94934412265, -1.22067911077, 2.5
101062, -1.83719255764, -1.38373534541, 2.5
101063, -1.7114390617, -1.53654688769, 2.5
101064, -1.57301466973, -1.6779823744, 2.5
101065, -1.4229442275, -1.80699466668, 2.5
101066, -1.26233880405, -1.92262860266, 2.5
101067, -1.09238746575, -2.02402806914, 2.5
101068, -0.914348472848, -2.11044233993, 2.5
101069, -0.729539963754, -2.18123163402, 2.5
101070, -0.539330196011, -2.23587185224, 2.5
101071, -0.345127416192, -2.27395845753, 2.5
101072, -0.148369433733, -2.29520946999, 2.5
101073, 0.0494870241032, -2.29946755455, 2.5
101074, 0.246977097327, -2.28670118585, 2.5
101075, 0.442638638532, -2.25700488162, 2.5
101076, 0.635023038123, -2.2105985029, 2.5
101077, 0.822705949315, -2.14782562629, 2.5
101078, 1.0042978335, -2.0691510002, 2.5
101079, 1.17845424789, -1.97515710403, 2.5
101080, 1.34388579934, -1.86653983571, 2.5
101081, 1.49936769052, -1.7441033595, 2.5
101082, 1.6437487879, -1.60875415222, 2.5
101083, 1.77596014434, -1.46149429204, 2.5
101084, 1.89502291324, -1.30341403947, 2.5
101085, 2.00005559549, -1.13568376537, 2.5
101086, 2.09028056588, -0.959545286007, 2.5
101087, 2.16502983028, -0.776302669065, 2.5
101088, 2.22374997129, -0.587312578766, 2.5
101089, 2.26600624553, -0.393974231617, 2.5
101090, 2.29148580235, -0.197719037096, 2.5
101091, 2.3, -5.63337527607e-16, 2.5
101092, 2.3, 0, 2.7
101093, 2.29148580235, 0.197719037096, 2.7
101094, 2.26600624553, 0.393974231617, 2.7
101095, 2.22374997129, 0.587312578766, 2.7
101096, 2.16502983028, 0.776302669065, 2.7
101097, 2.09028056588, 0.959545286007, 2.7
101098, 2.00005559549, 1.13568376537, 2.7
101099, 1.89502291324, 1.30341403947, 2.7
101100, 1.77596014434, 1.46149429204, 2.7
101101, 1.6437487879, 1.60875415222, 2.7
101102, 1.49936769052, 1.7441033595, 2.7
101103, 1.34388579934, 1.86653983571, 2.7
101104, 1.17845424789, 1.97515710403, 2.7
101105, 1.0042978335, 2.0691510002, 2.7
101106, 0.822705949315, 2.14782562629, 2.7
101107, 0.635023038123, 2.2105985029, 2.7
101108, 0.442638638532, 2.25700488162, 2.7
101109, 0.246977097327, 2.28670118585, 2.7
101110, 0.0494870241032, 2.29946755455, 2.7
101111, -0.148369433733, 2.29520946999, 2.7
101112, -0.345127416192, 2.27395845753, 2.7
101113, -0.539330196011, 2.23587185224, 2.7
101114, -0.729539963754, 2.18123163402, 2.7
101115, -0.914348472848, 2.11044233993, 2.7
101116, -1.09238746575, 2.02402806914, 2.7
101117, -1.26233880405, 1.92262860266, 2.7
101118, -1.4229442275, 1.80699466668, 2.7
101119, -1.57301466973, 1.6779823744, 2.7
101120, -1.7114390617, 1.53654688769, 2.7
101121, -1.83719255764, 1.38373534541, 2.7
101122, -1.94934412265, 1.22067911077, 2.7
101123, -2.0470634258, 1.04858539507, 2.7
101124, -2.12962698754, 0.868728319967, 2.7
101125, -2.19642353616, 0.682439484328, 2.7
101126, -2.24695853338, 0.491098105511, 2.7
101127, -2.28085783576, 0.29612080814, 2.7
101128, -2.29787046473, 0.0989511359102, 2.7
101129, -2.29787046473, -0.0989511359102, 2.7
101130, -2.28085783576, -0.29612080814, 2.7
101131, -2.24695853338, -0.491098105511, 2.7
101132, -2.19642353616, -0.682439484328, 2.7
101133, -2.12962698754, -0.868728319967, 2.7
101134, -2.0470634258, -1.04858539507, 2.7
101135, -1.94934412265, -1.22067911077, 2.7
101136, -1.83719255764, -1.38373534541, 2.7
101137, -1.7114390617, -1.53654688769, 2.7
101138, -1.57301466973, -1.6779823744, 2.7
101139, -1.4229442275, -1.80699466668, 2.7
101140, -1.26233880405, -1.92262860266, 2.7
101141, -1.09238746575, -2.02402806914, 2.7
101142, -0.914348472848, -2.11044233993, 2.7
101143, -0.729539963754, -2.18123163402, 2.7
101144, -0.539330196011, -2.23587185224, 2.7
101145, -0.345127416192, -2.27395845753, 2.7
101146, -0.148369433733, -2.29520946999, 2.7
101147, 0.0494870241032, -2.29946755455, 2.7
101148, 0.246977097327, -2.28670118585, 2.7
101149, 0.442638638532, -2.25700488162, 2.7
101150, 0.635023038123, -2.2105985029, 2.7
101151, 0.822705949315, -2.14782562629, 2.7
101152, 1.0042978335, -2.0691510002, 2.7
101153, 1.17845424789, -1.97515710403, 2.7
101154, 1.34388579934, -1.86653983571, 2.7
101155, 1.49936769052, -1.7441033595, 2.7
101156, 1.6437487879, -1.60875415222, 2.7
101157, 1.77596014434, -1.46149429204, 2.7
101158, 1.89502291324, -1.30341403947, 2.7
101159, 2.00005559549, -1.13568376537, 2.7
101160, 2.09028056588, -0.959545286007, 2.7
101161, 2.16502983028, -0.776302669065, 2.7
101162, 2.22374997129, -0.587312578766, 2.7
101163, 2.26600624553, -0.393974231617, 2.7
101164, 2.29148580235, -0.197719037096, 2.7
101165, 2.3, -5.63337527607e-16, 2.7
101166, 2.3, 0, 2.9
101167, 2.29148580235, 0.197719037096, 2.9
101168, 2.26600624553, 0.393974231617, 2.9
101169, 2.22374997129, 0.587312578766, 2.9
101170, 2.16502983028, 0.776302669065, 2.9
101171, 2.09028056588, 0.959545286007, 2.9
101172, 2.00005559549, 1.13568376537, 2.9
101173, 1.89502291324, 1.30341403947, 2.9
101174, 1.77596014434, 1.46149429204, 2.9
101175, 1.6437487879, 1.60875415222, 2.9
101176, 1.49936769052, 1.7441033595, 2.9
101177, 1.34388579934, 1.86653983571, 2.9
101178, 1.17845424789, 1.97515710403, 2.9
101179, 1.0042978335, 2.0691510002, 2.9
101180, 0.822705949315, 2.14782562629, 2.9
101181, 0.635023038123, 2.2105985029, 2.9
101182, 0.442638638532, 2.25700488162, 2.9
101183, 0.246977097327, 2.28670118585, 2.9
101184, 0.0494870241032, 2.29946755455, 2.9
101185, -0.148369433733, 2.29520946999, 2.9
101186, -0.345127416192, 2.27395845753, 2.9
101187, -0.539330196011, 2.23587185224, 2.9
101188, -0.729539963754, 2.18123163402, 2.9
101189, -0.914348472848, 2.11044233993, 2.9
101190, -1.09238746575, 2.02402806914, 2.9
101191, -1.26233880405, 1.92262860266, 2.9
101192, -1.4229442275, 1.80699466668, 2.9
101193, -1.57301466973, 1.6779823744, 2.9
101194, -1.7114390617, 1.53654688769, 2.9
101195, -1.83719255764, 1.38373534541, 2.9
101196, -1.94934412265, 1.22067911077, 2.9
101197, -2.0470634258, 1.04858539507, 2.9
101198, -2.12962698754, 0.868728319967, 2.9
101199, -2.19642353616, 0.682439484328, 2.9
101200, -2.24695853338, 0.491098105511, 2.9
101201, -2.28085783576, 0.29612080814, 2.9
101202, -2.29787046473, 0.0989511359102, 2.9
101203, -2.29787046473, -0.0989511359102, 2.9
101204, -2.28085783576, -0.29612080814, 2.9
101205, -2.24695853338, -0.491098105511, 2.9
101206, -2.19642353616, -0.682439484328, 2.9
101207, -2.12962698754, -0.868728319967, 2.9
101208, -2.0470634258, -1.04858539507, 2.9
101209, -1.94934412265, -1.22067911077, 2.9
101210, -1.83719255764, -1.38373534541, 2.9
101211, -1.7114390617, -1.53654688769, 2.9
101212, -1.57301466973, -1.6779823744, 2.9
101213, -1.4229442275, -1.80699466668, 2.9
101214, -1.26233880405, -1.92262860266, 2.9
101215, -1.09238746575, -2.02402806914, 2.9
101216, -0.914348472848, -2.11044233993, 2.9
101217, -0.729539963754, -2.18123163402, 2.9
101218, -0.539330196011, -2.23587185224, 2.9
101219, -0.345127416192, -2.27395845753, 2.9
101220, -0.148369433733, -2.29520946999, 2.9
101221, 0.0494870241032, -2.29946755455, 2.9
101222, 0.246977097327, -2.28670118585, 2.9
101223, 0.442638638532, -2.25700488162, 2.9
101224, 0.635023038123, -2.2105985029, 2.9
101225, 0.822705949315, -2.14782562629, 2.9
101226, 1.0042978335, -2.0691510002, 2.9
101227, 1.17845424789, -1.97515710403, 2.9
101228, 1.34388579934, -1.86653983571, 2.9
101229, 1.49936769052, -1.7441033595, 2.9
101230, 1.6437487879, -1.60875415222, 2.9
101231, 1.77596014434, -1.46149429204, 2.9
101232, 1.89502291324, -1.30341403947, 2.9
101233, 2.00005559549, -1.13568376537, 2.9
101234, 2.09028056588, -0.959545286007, 2.9
101235, 2.16502983028, -0.776302669065, 2.9
101236, 2.22374997129, -0.587312578766, 2.9
101237, 2.26600624553, -0.393974231617, 2.9
101238, 2.29148580235, -0.197719037096, 2.9
101239, 2.3, -5.63337527607e-16, 2.9
101240, 2.3, 0, 3.1
101241, 2.29148580235, 0.197719037096, 3.1
101242, 2.26600624553, 0.393974231617, 3.1
101243, 2.22374997129, 0.587312578766, 3.1
101244, 2.16502983028, 0.776302669065, 3.1
101245, 2.09028056588, 0.959545286007, 3.1
101246, 2.00005559549, 1.13568376537, 3.1
101247, 1.89502291324, 1.30341403947, 3.1
101248, 1.77596014434, 1.46149429204, 3.1
101249, 1.6437487879, 1.60875415222, 3.1
101250, 1.49936769052, 1.7441033595, 3.1
101251, 1.34388579934, 1.86653983571, 3.1
101252, 1.17845424789, 1.97515710403, 3.1
101253, 1.0042978335, 2.0691510002, 3.1
101254, 0.822705949315, 2.14782562629, 3.1
101255, 0.635023038123, 2.2105985029, 3.1
101256, 0.442638638532, 2.25700488162, 3.1
101257, 0.246977097327, 2.28670118585, 3.1
101258, 0.0494870241032, 2.29946755455, 3.1
101259, -0.148369433733, 2.29520946999, 3.1
101260, -0.345127416192, 2.27395845753, 3.1
101261, -0.539330196011, 2.23587185224, 3.1
101262, -0.729539963754, 2.18123163402, 3.1
101263, -0.914348472848, 2.11044233993, 3.1
101264, -1.09238746575, 2.02402806914, 3.1
101265, -1.26233880405, 1.92262860266, 3.1
101266, -1.4229442275, 1.80699466668, 3.1
101267, -1.57301466973, 1.6779823744, 3.1
101268, -1.7114390617, 1.53654688769, 3.1
101269, -1.83719255764, 1.38373534541, 3.1
101270, -1.94934412265, 1.22067911077, 3.1
101271, -2.0470634258, 1.04858539507, 3.1
101272, -2.12962698754, 0.868728319967, 3.1
101273, -2.19642353616, 0.682439484328, 3.1
101274, -2.24695853338, 0.491098105511, 3.1
101275, -2.28085783576, 0.29612080814, 3.1
101276, -2.29787046473, 0.0989511359102, 3.1
101277, -2.29787046473, -0.0989511359102, 3.1
101278, -2.28085783576, -0.29612080814, 3.1
101279, -2.24695853338, -0.491098105511, 3.1
101280, -2.19642353616, -0.682439484328, 3.1
101281, -2.12962698754, -0.868728319967, 3.1
101282, -2.0470634258, -1.04858539507, 3.1
101283, -1.94934412265, -1.22067911077, 3.1
101284, -1.83719255764, -1.38373534541, 3.1
101285, -1.7114390617, -1.53654688769, 3.1
101286, -1.57301466973, -1.6779823744, 3.1
101287, -1.4229442275, -1.80699466668, 3.1
101288, -1.26233880405, -1.92262860266, 3.1
101289, -1.09238746575, -2.02402806914, 3.1
101290, -0.914348472848, -2.11044233993, 3.1
101291, -0.729539963754, -2.18123163402, 3.1
101292, -0.539330196011, -2.23587185224, 3.1
101293, -0.345127416192, -2.27395845753, 3.1
101294, -0.148369433733, -2.29520946999, 3.1
101295, 0.0494870241032, -2.29946755455, 3.1
101296, 0.246977097327, -2.28670118585, 3.1
101297, 0.442638638532, -2.25700488162, 3.1
101298, 0.635023038123, -2.2105985029, 3.1
101299, 0.822705949315, -2.14782562629, 3.1
101300, 1.0042978335, -2.0691510002, 3.1
101301, 1.17845424789, -1.97515710403, 3.1
101302, 1.34388579934, -1.86653983571, 3.1
101303, 1.49936769052, -1.7441033595, 3.1
101304, 1.6437487879, -1.60875415222, 3.1
101305, 1.77596014434, -1.46149429204, 3.1
101306, 1.89502291324, -1.30341403947, 3.1
101307, 2.00005559549, -1.13568376537, 3.1
101308, 2.09028056588, -0.959545286007, 3.1
101309, 2.16502983028, -0.776302669065, 3.1
101310, 2.22374997129, -0.587312578766, 3.1
101311, 2.26600624553, -0.393974231617, 3.1
101312, 2.29148580235, -0.197719037096, 3.1
101313, 2.3, -5.63337527607e-16, 3.1
101314, 2.3, 0, 3.3
101315, 2.29148580235, 0.197719037096, 3.3
101316, 2.26600624553, 0.393974231617, 3.3
101317, 2.22374997129, 0.587312578766, 3.3
101318, 2.16502983028, 0.776302669065, 3.3
101319, 2.09028056588, 0.959545286007, 3.3
101320, 2.00005559549, 1.13568376537, 3.3
101321, 1.89502291324, 1.30341403947, 3.3
101322, 1.77596014434, 1.46149429204, 3.3
101323, 1.6437487879, 1.60875415222, 3.3
101324, 1.49936769052, 1.7441033595, 3.3
101325, 1.34388579934, 1.86653983571, 3.3
101326, 1.17845424789, 1.97515710403, 3.3
101327, 1.0042978335, 2.0691510002, 3.3
101328, 0.822705949315, 2.14782562629, 3.3
101329, 0.635023038123, 2.2105985029, 3.3
101330, 0.442638638532, 2.25700488162, 3.3
101331, 0.246977097327, 2.28670118585, 3.3
101332, 0.0494870241032, 2.29946755455, 3.3
101333, -0.148369433733, 2.29520946999, 3.3
101334, -0.345127416192, 2.27395845753, 3.3
101335, -0.539330196011, 2.23587185224, 3.3
101336, -0.729539963754, 2.18123163402, 3.3
101337, -0.914348472848, 2.11044233993, 3.3
101338, -1.09238746575, 2.02402806914, 3.3
101339, -1.26233880405, 1.92262860266, 3.3
101340, -1.4229442275, 1.80699466668, 3.3
101341, -1.57301466973, 1.6779823744, 3.3
101342, -1.7114390617, 1.53654688769, 3.3
101343, -1.83719255764, 1.38373534541, 3.3
101344, -1.94934412265, 1.22067911077, 3.3
101345, -2.0470634258, 1.04858539507, 3.3
101346, -2.12962698754, 0.868728319967, 3.3
101347, -2.19642353616, 0.682439484328, 3.3
101348, -2.24695853338, 0.491098105511, 3.3
101349, -2.28085783576, 0.29612080814, 3.3
101350, -2.29787046473, 0.0989511359102, 3.3
101351, -2.29787046473, -0.0989511359102, 3.3
101352, -2.28085783576, -0.29612080814, 3.3
101353, -2.24695853338, -0.491098105511, 3.3
101354, -2.19642353616, -0.682439484328, 3.3
101355, -2.12962698754, -0.868728319967, 3.3
101356, -2.0470634258, -1.04858539507, 3.3
101357, -1.94934412265, -1.22067911077, 3.3
101358, -1.83719255764, -1.38373534541, 3.3
101359, -1.7114390617, -1.53654688769, 3.3
101360, -1.57301466973, -1.6779823744, 3.3
101361, -1.4229442275, -1.80699466668, 3.3
101362, -1.26233880405, -1.92262860266, 3.3
101363, -1.09238746575, -2.02402806914, 3.3
101364, -0.914348472848, -2.11044233993, 3.3
101365, -0.729539963754, -2.18123163402, 3.3
101366, -0.539330196011, -2.23587185224, 3.3
101367, -0.345127416192, -2.27395845753, 3.3
101368, -0.148369433733, -2.29520946999, 3.3
101369, 0.0494870241032, -2.29946755455, 3.3
101370, 0.246977097327, -2.28670118585, 3.3
101371, 0.442638638532, -2.25700488162, 3.3
101372, 0.635023038123, -2.2105985029, 3.3
101373, 0.822705949315, -2.14782562629, 3.3
101374, 1.0042978335, -2.0691510002, 3.3
101375, 1.17845424789, -1.97515710403, 3.3
101376, 1.34388579934, -1.86653983571, 3.3
101377, 1.49936769052, -1.7441033595, 3.3
101378, 1.6437487879, -1.60875415222, 3.3
101379, 1.77596014434, -1.46149429204, 3.3
101380, 1.89502291324, -1.30341403947, 3.3
101381, 2.00005559549, -1.13568376537, 3.3
101382, 2.09028056588, -0.959545286007, 3.3
101383, 2.16502983028, -0.776302669065, 3.3
101384, 2.22374997129, -0.587312578766, 3.3
101385, 2.26600624553, -0.393974231617, 3.3
101386, 2.29148580235, -0.197719037096, 3.3
101387, 2.3, -5.63337527607e-16, 3.3
101388, 2.3, 0, 3.5
101389, 2.29148580235, 0.197719037096, 3.5
101390, 2.26600624553, 0.393974231617, 3.5
101391, 2.22374997129, 0.587312578766, 3.5
101392, 2.16502983028, 0.776302669065, 3.5
101393, 2.09028056588, 0.959545286007, 3.5
101394, 2.00005559549, 1.13568376537, 3.5
101395, 1.89502291324, 1.30341403947, 3.5
101396, 1.77596014434, 1.46149429204, 3.5
101397, 1.6437487879, 1.60875415222, 3.5
101398, 1.49936769052, 1.7441033595, 3.5
101399, 1.34388579934, 1.86653983571, 3.5
101400, 1.17845424789, 1.97515710403, 3.5
101401, 1.0042978335, 2.0691510002, 3.5
101402, 0.822705949315, 2.14782562629, 3.5
101403, 0.635023038123, 2.2105985029, 3.5
101404, 0.442638638532, 2.25700488162, 3.5
101405, 0.246977097327, 2.28670118585, 3.5
101406, 0.0494870241032, 2.29946755455, 3.5
101407, -0.148369433733, 2.29520946999, 3.5
101408, -0.345127416192, 2.27395845753, 3.5
101409, -0.539330196011, 2.23587185224, 3.5
101410, -0.729539963754, 2.18123163402, 3.5
101411, -0.914348472848, 2.11044233993, 3.5
101412, -1.09238746575, 2.02402806914, 3.5
101413, -1.26233880405, 1.92262860266, 3.5
101414, -1.4229442275, 1.80699466668, 3.5
101415, -1.57301466973, 1.6779823744, 3.5
101416, -1.7114390617, 1.53654688769, 3.5
101417, -1.83719255764, 1.38373534541, 3.5
101418, -1.94934412265, 1.22067911077, 3.5
101419, -2.0470634258, 1.04858539507, 3.5
101420, -2.12962698754, 0.868728319967, 3.5
101421, -2.19642353616, 0.682439484328, 3.5
101422, -2.24695853338, 0.491098105511, 3.5
101423, -2.28085783576, 0.29612080814, 3.5
101424, -2.29787046473, 0.0989511359102, 3.5
101425, -2.29787046473, -0.0989511359102, 3.5
101426, -2.28085783576, -0.29612080814, 3.5
101427, -2.24695853338, -0.491098105511, 3.5
101428, -2.19642353616, -0.682439484328, 3.5
101429, -2.12962698754, -0.868728319967, 3.5
101430, -2.0470634258, -1.04858539507, 3.5
101431, -1.94934412265, -1.22067911077, 3.5
101432, -1.83719255764, -1.38373534541, 3.5
101433, -1.7114390617, -1.53654688769, 3.5
101434, -1.57301466973, -1.6779823744, 3.5
101435, -1.4229442275, -1.80699466668, 3.5
101436, -1.26233880405, -1.92262860266, 3.5
101437, -1.09238746575, -2.02402806914, 3.5
101438, -0.914348472848, -2.11044233993, 3.5
101439, -0.729539963754, -2.18123163402, 3.5
101440, -0.539330196011, -2.23587185224, 3.5
101441, -0.345127416192, -2.27395845753, 3.5
101442, -0.148369433733, -2.29520946999, 3.5
101443, 0.0494870241032, -2.29946755455, 3.5
101444, 0.246977097327, -2.28670118585, 3.5
101445, 0.442638638532, -2.25700488162, 3.5
101446, 0.635023038123, -2.2105985029, 3.5
101447, 0.822705949315, -2.14782562629, 3.5
101448, 1.0042978335, -2.0691510002, 3.5
101449, 1.17845424789, -1.97515710403, 3.5
101450, 1.34388579934, -1.86653983571, 3.5
101451, 1.49936769052, -1.7441033595, 3.5
101452, 1.6437487879, -1.60875415222, 3.5
101453, 1.77596014434, -1.46149429204, 3.5
101454, 1.89502291324, -1.30341403947, 3.5
101455, 2.00005559549, -1.13568376537, 3.5
101456, 2.09028056588, -0.959545286007, 3.5
101457, 2.16502983028, -0.776302669065, 3.5
101458, 2.22374997129, -0.587312578766, 3.5
101459, 2.26600624553, -0.393974231617, 3.5
101460, 2.29148580235, -0.197719037096, 3.5
101461, 2.3, -5.63337527607e-16, 3.5
101462, 2.3, 0, 3.7
101463, 2.29148580235, 0.197719037096, 3.7
101464, 2.26600624553, 0.393974231617, 3.7
101465, 2.22374997129, 0.587312578766, 3.7
101466, 2.16502983028, 0.776302669065, 3.7
101467, 2.09028056588, 0.959545286007, 3.7
101468, 2.00005559549, 1.13568376537, 3.7
101469, 1.89502291324, 1.30341403947, 3.7
101470, 1.77596014434, 1.46149429204, 3.7
101471, 1.6437487879, 1.60875415222, 3.7
101472, 1.49936769052, 1.7441033595, 3.7
101473, 1.34388579934, 1.86653983571, 3.7
101474, 1.17845424789, 1.97515710403, 3.7
101475, 1.0042978335, 2.0691510002, 3.7
101476, 0.822705949315, 2.14782562629, 3.7
101477, 0.635023038123, 2.2105985029, 3.7
101478, 0.442638638532, 2.25700488162, 3.7
101479, 0.246977097327, 2.28670118585, 3.7
101480, 0.0494870241032, 2.29946755455, 3.7
101481, -0.148369433733, 2.29520946999, 3.7
101482, -0.345127416192, 2.27395845753, 3.7
101483, -0.539330196011, 2.23587185224, 3.7
101484, -0.729539963754, 2.18123163402, 3.7
101485, -0.914348472848, 2.11044233993, 3.7
101486, -1.09238746575, 2.02402806914, 3.7
101487, -1.26233880405, 1.92262860266, 3.7
101488, -1.4229442275, 1.80699466668, 3.7
101489, -1.57301466973, 1.6779823744, 3.7
101490, -1.7114390617, 1.53654688769, 3.7
101491, -1.83719255764, 1.38373534541, 3.7
101492, -1.94934412265, 1.22067911077, 3.7
101493, -2.0470634258, 1.04858539507, 3.7
101494, -2.12962698754, 0.868728319967, 3.7
101495, -2.19642353616, 0.682439484328, 3.7
101496, -2.24695853338, 0.491098105511, 3.7
101497, -2.28085783576, 0.29612080814, 3.7
101498, -2.29787046473, 0.0989511359102, 3.7
101499, -2.29787046473, -0.0989511359102, 3.7
101500, -2.28085783576, -0.29612080814, 3.7
101501, -2.24695853338, -0.491098105511, 3.7
101502, -2.19642353616, -0.682439484328, 3.7
101503, -2.12962698754, -0.868728319967, 3.7
101504, -2.0470634258, -1.04858539507, 3.7
101505, -1.94934412265, -1.22067911077, 3.7
101506, -1.83719255764, -1.38373534541, 3.7
101507, -1.7114390617, -1.53654688769, 3.7
101508, -1.57301466973, -1.6779823744, 3.7
101509, -1.4229442275, -1.80699466668, 3.7
101510, -1.26233880405, -1.92262860266, 3.7
101511, -1.09238746575, -2.02402806914, 3.7
101512, -0.914348472848, -2.11044233993, 3.7
101513, -0.729539963754, -2.18123163402, 3.7
101514, -0.539330196011, -2.23587185224, 3.7
101515, -0.345127416192, -2.27395845753, 3.7
101516, -0.148369433733, -2.29520946999, 3.7
101517, 0.0494870241032, -2.29946755455, 3.7
101518, 0.246977097327, -2.28670118585, 3.7
101519, 0.442638638532, -2.25700488162, 3.7
101520, 0.635023038123, -2.2105985029, 3.7
101521, 0.822705949315, -2.14782562629, 3.7
101522, 1.0042978335, -2.0691510002, 3.7
101523, 1.17845424789, -1.97515710403, 3.7
101524, 1.34388579934, -1.86653983571, 3.7
101525, 1.49936769052, -1.7441033595, 3.7
101526, 1.6437487879, -1.60875415222, 3.7
101527, 1.77596014434, -1.46149429204, 3.7
101528, 1.89502291324, -1.30341403947, 3.7
101529, 2.00005559549, -1.13568376537, 3.7
101530, 2.09028056588, -0.959545286007, 3.7
101531, 2.16502983028, -0.776302669065, 3.7
101532, 2.22374997129, -0.587312578766, 3.7
101533, 2.26600624553, -0.393974231617, 3.7
101534, 2.29148580235, -0.197719037096, 3.7
101535, 2.3, -5.63337527607e-16, 3.7
101536, 2.3, 0, 3.9
101537, 2.29148580235, 0.197719037096, 3.9
101538, 2.26600624553, 0.393974231617, 3.9
101539, 2.22374997129, 0.587312578766, 3.9
101540, 2.16502983028, 0.776302669065, 3.9
101541, 2.09028056588, 0.959545286007, 3.9
101542, 2.00005559549, 1.13568376537, 3.9
101543, 1.89502291324, 1.30341403947, 3.9
101544, 1.77596014434, 1.46149429204, 3.9
101545, 1.6437487879, 1.60875415222, 3.9
101546, 1.49936769052, 1.7441033595, 3.9
101547, 1.34388579934, 1.86653983571, 3.9
101548, 1.17845424789, 1.97515710403, 3.9
101549, 1.0042978335, 2.0691510002, 3.9
101550, 0.822705949315, 2.14782562629, 3.9
101551, 0.635023038123, 2.2105985029, 3.9
101552, 0.442638638532, 2.25700488162, 3.9
101553, 0.246977097327, 2.28670118585, 3.9
101554, 0.0494870241032, 2.29946755455, 3.9
101555, -0.148369433733, 2.29520946999, 3.9
101556, -0.345127416192, 2.27395845753, 3.9
101557, -0.539330196011, 2.23587185224, 3.9
101558, -0.729539963754, 2.18123163402, 3.9
101559, -0.914348472848, 2.11044233993, 3.9
101560, -1.09238746575, 2.02402806914, 3.9
101561, -1.26233880405, 1.92262860266, 3.9
101562, -1.4229442275, 1.80699466668, 3.9
101563, -1.57301466973, 1.6779823744, 3.9
101564, -1.7114390617, 1.53654688769, 3.9
101565, -1.83719255764, 1.38373534541, 3.9
101566, -1.94934412265, 1.22067911077, 3.9
101567, -2.0470634258, 1.04858539507, 3.9
101568, -2.12962698754, 0.868728319967, 3.9
101569, -2.19642353616, 0.682439484328, 3.9
101570, -2.24695853338, 0.491098105511, 3.9
101571, -2.28085783576, 0.29612080814, 3.9
101572, -2.29787046473, 0.0989511359102, 3.9
101573, -2.29787046473, -0.0989511359102, 3.9
101574, -2.28085783576, -0.29612080814, 3.9
101575, -2.24695853338, -0.491098105511, 3.9
101576, -2.19642353616, -0.682439484328, 3.9
101577, -2.12962698754, -0.868728319967, 3.9
101578, -2.0470634258, -1.04858539507, 3.9
101579, -1.94934412265, -1.22067911077, 3.9
101580, -1.83719255764, -1.38373534541, 3.9
101581, -1.7114390617, -1.53654688769, 3.9
101582, -1.57301466973, -1.6779823744, 3.9
101583, -1.4229442275, -1.80699466668, 3.9
101584, -1.26233880405, -1.92262860266, 3.9
101585, -1.09238746575, -2.02402806914, 3.9
101586, -0.914348472848, -2.11044233993, 3.9
101587, -0.729539963754, -2.18123163402, 3.9
101588, -0.539330196011, -2.23587185224, 3.9
101589, -0.345127416192, -2.27395845753, 3.9
101590, -0.148369433733, -2.29520946999, 3.9
101591, 0.0494870241032, -2.29946755455, 3.9
101592, 0.246977097327, -2.28670118585, 3.9
101593, 0.442638638532, -2.25700488162, 3.9
101594, 0.635023038123, -2.2105985029, 3.9
101595, 0.822705949315, -2.14782562629, 3.9
101596, 1.0042978335, -2.0691510002, 3.9
101597, 1.17845424789, -1.97515710403, 3.9
101598, 1.34388579934, -1.86653983571, 3.9
101599, 1.49936769052, -1.7441033595, 3.9
101600, 1.6437487879, -1.60875415222, 3.9
101601, 1.77596014434, -1.46149429204, 3.9
101602, 1.89502291324, -1.30341403947, 3.9
101603, 2.00005559549, -1.13568376537, 3.9
101604, 2.09028056588, -0.959545286007, 3.9
101605, 2.16502983028, -0.776302669065, 3.9
101606, 2.22374997129, -0.587312578766, 3.9
101607, 2.26600624553, -0.393974231617, 3.9
101608, 2.29148580235, -0.197719037096, 3.9
101609, 2.3, -5.63337527607e-16, 3.9
101610, 2.3, 0, 4.1
101611, 2.29148580235, 0.197719037096, 4.1
101612, 2.26600624553, 0.393974231617, 4.1
101613, 2.22374997129, 0.587312578766, 4.1
101614, 2.16502983028, 0.776302669065, 4.1
101615, 2.09028056588, 0.959545286007, 4.1
101616, 2.00005559549, 1.13568376537, 4.1
101617, 1.89502291324, 1.30341403947, 4.1
101618, 1.77596014434, 1.46149429204, 4.1
101619, 1.6437487879, 1.60875415222, 4.1
101620, 1.49936769052, 1.7441033595, 4.1
101621, 1.34388579934, 1.86653983571, 4.1
101622, 1.17845424789, 1.97515710403, 4.1
101623, 1.0042978335, 2.0691510002, 4.1
101624, 0.822705949315, 2.14782562629, 4.1
101625, 0.635023038123, 2.2105985029, 4.1
101626, 0.442638638532, 2.25700488162, 4.1
101627, 0.246977097327, 2.28670118585, 4.1
101628, 0.0494870241032, 2.29946755455, 4.1
101629, -0.148369433733, 2.29520946999, 4.1
101630, -0.345127416192, 2.27395845753, 4.1
101631, -0.539330196011, 2.23587185224, 4.1
101632, -0.729539963754, 2.18123163402, 4.1
101633, -0.914348472848, 2.11044233993, 4.1
101634, -1.09238746575, 2.02402806914, 4.1
101635, -1.26233880405, 1.92262860266, 4.1
101636, -1.4229442275, 1.80699466668, 4.1
101637, -1.57301466973, 1.6779823744, 4.1
101638, -1.7114390617, 1.53654688769, 4.1
101639, -1.83719255764, 1.38373534541, 4.1
101640, -1.94934412265, 1.22067911077, 4.1
101641, -2.0470634258, 1.04858539507, 4.1
101642, -2.12962698754, 0.868728319967, 4.1
101643, -2.19642353616, 0.682439484328, 4.1
101644, -2.24695853338, 0.491098105511, 4.1
101645, -2.28085783576, 0.29612080814, 4.1
101646, -2.29787046473, 0.0989511359102, 4.1
101647, -2.29787046473, -0.0989511359102, 4.1
101648, -2.28085783576, -0.29612080814, 4.1
101649, -2.24695853338, -0.491098105511, 4.1
101650, -2.19642353616, -0.682439484328, 4.1
101651, -2.12962698754, -0.868728319967, 4.1
101652, -2.0470634258, -1.04858539507, 4.1
101653, -1.94934412265, -1.22067911077, 4.1
101654, -1.83719255764, -1.38373534541, 4.1
101655, -1.7114390617, -1.53654688769, 4.1
101656, -1.57301466973, -1.6779823744, 4.1
101657, -1.4229442275, -1.80699466668, 4.1
101658, -1.26233880405, -1.92262860266, 4.1
101659, -1.09238746575, -2.02402806914, 4.1
101660, -0.914348472848, -2.11044233993, 4.1
101661, -0.729539963754, -2.18123163402, 4.1
101662, -0.539330196011, -2.23587185224, 4.1
101663, -0.345127416192, -2.27395845753, 4.1
101664, -0.148369433733, -2.29520946999, 4.1
101665, 0.0494870241032, -2.29946755455, 4.1
101666, 0.246977097327, -2.28670118585, 4.1
101667, 0.442638638532, -2.25700488162, 4.1
101668, 0.635023038123, -2.2105985029, 4.1
101669, 0.822705949315, -2.14782562629, 4.1
101670, 1.0042978335, -2.0691510002, 4.1
101671, 1.17845424789, -1.97515710403, 4.1
101672, 1.34388579934, -1.86653983571, 4.1
101673, 1.49936769052, -1.7441033595, 4.1
101674, 1.6437487879, -1.60875415222, 4.1
101675, 1.77596014434, -1.46149429204, 4.1
101676, 1.89502291324, -1.30341403947, 4.1
101677, 2.00005559549, -1.13568376537, 4.1
101678, 2.09028056588, -0.959545286007, 4.1
101679, 2.16502983028, -0.776302669065, 4.1
101680, 2.22374997129, -0.587312578766, 4.1
101681, 2.26600624553, -0.393974231617, 4.1
101682, 2.29148580235, -0.197719037096, 4.1
101683, 2.3, -5.63337527607e-16, 4.1
101684, 2.3, 0, 4.3
101685, 2.29148580235, 0.197719037096, 4.3
101686, 2.26600624553, 0.393974231617, 4.3
101687, 2.22374997129, 0.587312578766, 4.3
101688, 2.16502983028, 0.776302669065, 4.3
101689, 2.09028056588, 0.959545286007, 4.3
101690, 2.00005559549, 1.13568376537, 4.3
101691, 1.89502291324, 1.30341403947, 4.3
101692, 1.77596014434, 1.46149429204, 4.3
101693, 1.6437487879, 1.60875415222, 4.3
101694, 1.49936769052, 1.7441033595, 4.3
101695, 1.34388579934, 1.86653983571, 4.3
101696, 1.17845424789, 1.97515710403, 4.3
101697, 1.0042978335, 2.0691510002, 4.3
101698, 0.822705949315, 2.14782562629, 4.3
101699, 0.635023038123, 2.2105985029, 4.3
101700, 0.442638638532, 2.25700488162, 4.3
101701, 0.246977097327, 2.28670118585, 4.3
101702, 0.0494870241032, 2.29946755455, 4.3
101703, -0.148369433733, 2.29520946999, 4.3
101704, -0.345127416192, 2.27395845753, 4.3
101705, -0.539330196011, 2.23587185224, 4.3
101706, -0.729539963754, 2.18123163402, 4.3
101707, -0.914348472848, 2.11044233993, 4.3
101708, -1.09238746575, 2.02402806914, 4.3
101709, -1.26233880405, 1.92262860266, 4.3
101710, -1.4229442275, 1.80699466668, 4.3
101711, -1.57301466973, 1.6779823744, 4.3
101712, -1.7114390617, 1.53654688769, 4.3
101713, -1.83719255764, 1.38373534541, 4.3
101714, -1.94934412265, 1.22067911077, 4.3
101715, -2.0470634258, 1.04858539507, 4.3
101716, -2.12962698754, 0.868728319967, 4.3
101717, -2.19642353616, 0.682439484328, 4.3
101718, -2.24695853338, 0.491098105511, 4.3
101719, -2.28085783576, 0.29612080814, 4.3
101720, -2.29787046473, 0.0989511359102, 4.3
101721, -2.29787046473, -0.0989511359102, 4.3
101722, -2.28085783576, -0.29612080814, 4.3
101723, -2.24695853338, -0.491098105511, 4.3
101724, -2.19642353616, -0.682439484328, 4.3
101725, -2.12962698754, -0.868728319967, 4.3
101726, -2.0470634258, -1.04858539507, 4.3
101727, -1.94934412265, -1.22067911077, 4.3
101728, -1.83719255764, -1.38373534541, 4.3
101729, -1.7114390617, -1.53654688769, 4.3
101730, -1.57301466973, -1.6779823744, 4.3
101731, -1.4229442275, -1.80699466668, 4.3
101732, -1.26233880405, -1.92262860266, 4.3
101733, -1.09238746575, -2.02402806914, 4.3
101734, -0.914348472848, -2.11044233993, 4.3
101735, -0.729539963754, -2.18123163402, 4.3
101736, -0.539330196011, -2.23587185224, 4.3
101737, -0.345127416192, -2.27395845753, 4.3
101738, -0.148369433733, -2.29520946999, 4.3
101739, 0.0494870241032, -2.29946755455, 4.3
101740, 0.246977097327, -2.28670118585, 4.3
101741, 0.442638638532, -2.25700488162, 4.3
101742, 0.635023038123, -2.2105985029, 4.3
101743, 0.822705949315, -2.14782562629, 4.3
101744, 1.0042978335, -2.0691510002, 4.3
101745, 1.17845424789, -1.97515710403, 4.3
101746, 1.34388579934, -1.86653983571, 4.3
101747, 1.49936769052, -1.7441033595, 4.3
101748, 1.6437487879, -1.60875415222, 4.3
101749, 1.77596014434, -1.46149429204, 4.3
101750, 1.89502291324, -1.30341403947, 4.3
101751, 2.00005559549, -1.13568376537, 4.3
101752, 2.09028056588, -0.959545286007, 4.3
101753, 2.16502983028, -0.776302669065, 4.3
101754, 2.22374997129, -0.587312578766, 4.3
101755, 2.26600624553, -0.393974231617, 4.3
101756, 2.29148580235, -0.197719037096, 4.3
101757, 2.3, -5.63337527607e-16, 4.3
101758, 2.3, 0, 4.5
101759, 2.29148580235, 0.197719037096, 4.5
101760, 2.26600624553, 0.393974231617, 4.5
101761, 2.22374997129, 0.587312578766, 4.5
101762, 2.16502983028, 0.776302669065, 4.5
101763, 2.09028056588, 0.959545286007, 4.5
101764, 2.00005559549, 1.13568376537, 4.5
101765, 1.89502291324, 1.30341403947, 4.5
101766, 1.77596014434, 1.46149429204, 4.5
101767, 1.6437487879, 1.60875415222, 4.5
101768, 1.49936769052, 1.7441033595, 4.5
101769, 1.34388579934, 1.86653983571, 4.5
101770, 1.17845424789, 1.97515710403, 4.5
101771, 1.0042978335, 2.0691510002, 4.5
101772, 0.822705949315, 2.14782562629, 4.5
101773, 0.635023038123, 2.2105985029, 4.5
101774, 0.442638638532, 2.25700488162, 4.5
101775, 0.246977097327, 2.28670118585, 4.5
101776, 0.0494870241032, 2.29946755455, 4.5
101777, -0.148369433733, 2.29520946999, 4.5
101778, -0.345127416192, 2.27395845753, 4.5
101779, -0.539330196011, 2.23587185224, 4.5
101780, -0.729539963754, 2.18123163402, 4.5
101781, -0.914348472848, 2.11044233993, 4.5
101782, -1.09238746575, 2.02402806914, 4.5
101783, -1.26233880405, 1.92262860266, 4.5
101784, -1.4229442275, 1.80699466668, 4.5
101785, -1.57301466973, 1.6779823744, 4.5
101786, -1.7114390617, 1.53654688769, 4.5
101787, -1.83719255764, 1.38373534541, 4.5
101788, -1.94934412265, 1.22067911077, 4.5
101789, -2.0470634258, 1.04858539507, 4.5
101790, -2.12962698754, 0.868728319967, 4.5
101791, -2.19642353616, 0.682439484328, 4.5
101792, -2.24695853338, 0.491098105511, 4.5
101793, -2.28085783576, 0.29612080814, 4.5
101794, -2.29787046473, 0.0989511359102, 4.5
101795, -2.29787046473, -0.0989511359102, 4.5
101796, -2.28085783576, -0.29612080814, 4.5
101797, -2.24695853338, -0.491098105511, 4.5
101798, -2.19642353616, -0.682439484328, 4.5
101799, -2.12962698754, -0.868728319967, 4.5
101800, -2.0470634258, -1.04858539507, 4.5
101801, -1.94934412265, -1.22067911077, 4.5
101802, -1.83719255764, -1.38373534541, 4.5
101803, -1.7114390617, -1.53654688769, 4.5
101804, -1.57301466973, -1.6779823744, 4.5
101805, -1.4229442275, -1.80699466668, 4.5
101806, -1.26233880405, -1.92262860266, 4.5
101807, -1.09238746575, -2.02402806914, 4.5
101808, -0.914348472848, -2.11044233993, 4.5
101809, -0.729539963754, -2.18123163402, 4.5
101810, -0.539330196011, -2.23587185224, 4.5
101811, -0.345127416192, -2.27395845753, 4.5
101812, -0.148369433733, -2.29520946999, 4.5
101813, 0.0494870241032, -2.29946755455, 4.5
101814, 0.246977097327, -2.28670118585, 4.5
101815, 0.442638638532, -2.25700488162, 4.5
101816, 0.635023038123, -2.2105985029, 4.5
101817, 0.822705949315, -2.14782562629, 4.5
101818, 1.0042978335, -2.0691510002, 4.5
101819, 1.17845424789, -1.97515710403, 4.5
101820, 1.34388579934, -1.86653983571, 4.5
101821, 1.49936769052, -1.7441033595, 4.5
101822, 1.6437487879, -1.60875415222, 4.5
101823, 1.77596014434, -1.46149429204, 4.5
101824, 1.89502291324, -1.30341403947, 4.5
101825, 2.00005559549, -1.13568376537, 4.5
101826, 2.09028056588, -0.959545286007, 4.5
101827, 2.16502983028, -0.776302669065, 4.5
101828, 2.22374997129, -0.587312578766, 4.5
101829, 2.26600624553, -0.393974231617, 4.5
101830, 2.29148580235, -0.197719037096, 4.5
101831, 2.3, -5.63337527607e-16, 4.5
101832, 2.3, 0, 4.7
101833, 2.29148580235, 0.197719037096, 4.7
101834, 2.26600624553, 0.393974231617, 4.7
101835, 2.22374997129, 0.587312578766, 4.7
101836, 2.16502983028, 0.776302669065, 4.7
101837, 2.09028056588, 0.959545286007, 4.7
101838, 2.00005559549, 1.13568376537, 4.7
101839, 1.89502291324, 1.30341403947, 4.7
101840, 1.77596014434, 1.46149429204, 4.7
101841, 1.6437487879, 1.60875415222, 4.7
101842, 1.49936769052, 1.7441033595, 4.7
101843, 1.34388579934, 1.86653983571, 4.7
101844, 1.17845424789, 1.97515710403, 4.7
101845, 1.0042978335, 2.0691510002, 4.7
101846, 0.822705949315, 2.14782562629, 4.7
101847, 0.635023038123, 2.2105985029, 4.7
101848, 0.442638638532, 2.25700488162, 4.7
101849, 0.246977097327, 2.28670118585, 4.7
101850, 0.0494870241032, 2.29946755455, 4.7
101851, -0.148369433733, 2.29520946999, 4.7
101852, -0.345127416192, 2.27395845753, 4.7
101853, -0.539330196011, 2.23587185224, 4.7
101854, -0.729539963754, 2.18123163402, 4.7
101855, -0.914348472848, 2.11044233993, 4.7
101856, -1.09238746575, 2.02402806914, 4.7
101857, -1.26233880405, 1.92262860266, 4.7
101858, -1.4229442275, 1.80699466668, 4.7
101859, -1.57301466973, 1.6779823744, 4.7
101860, -1.7114390617, 1.53654688769, 4.7
101861, -1.83719255764, 1.38373534541, 4.7
101862, -1.94934412265, 1.22067911077, 4.7
101863, -2.0470634258, 1.04858539507, 4.7
101864, -2.12962698754, 0.868728319967, 4.7
101865, -2.19642353616, 0.682439484328, 4.7
101866, -2.24695853338, 0.491098105511, 4.7
101867, -2.28085783576, 0.29612080814, 4.7
101868, -2.29787046473, 0.0989511359102, 4.7
101869, -2.29787046473, -0.0989511359102, 4.7
101870, -2.28085783576, -0.29612080814, 4.7
101871, -2.24695853338, -0.491098105511, 4.7
101872, -2.19642353616, -0.682439484328, 4.7
101873, -2.12962698754, -0.868728319967, 4.7
101874, -2.0470634258, -1.04858539507, 4.7
101875, -1.94934412265, -1.22067911077, 4.7
101876, -1.83719255764, -1.38373534541, 4.7
101877, -1.7114390617, -1.53654688769, 4.7
101878, -1.57301466973, -1.6779823744, 4.7
101879, -1.4229442275, -1.80699466668, 4.7
101880, -1.26233880405, -1.92262860266, 4.7
101881, -1.09238746575, -2.02402806914, 4.7
101882, -0.914348472848, -2.11044233993, 4.7
101883, -0.729539963754, -2.18123163402, 4.7
101884, -0.539330196011, -2.23587185224, 4.7
101885, -0.345127416192, -2.27395845753, 4.7
101886, -0.148369433733, -2.29520946999, 4.7
101887, 0.0494870241032, -2.29946755455, 4.7
101888, 0.246977097327, -2.28670118585, 4.7
101889, 0.442638638532, -2.25700488162, 4.7
101890, 0.635023038123, -2.2105985029, 4.7
101891, 0.822705949315, -2.14782562629, 4.7
101892, 1.0042978335, -2.0691510002, 4.7
101893, 1.17845424789, -1.97515710403, 4.7
101894, 1.34388579934, -1.86653983571, 4.7
101895, 1.49936769052, -1.7441033595, 4.7
101896, 1.6437487879, -1.60875415222, 4.7
101897, 1.77596014434, -1.46149429204, 4.7
101898, 1.89502291324, -1.30341403947, 4.7
101899, 2.00005559549, -1.13568376537, 4.7
101900, 2.09028056588, -0.959545286007, 4.7
101901, 2.16502983028, -0.776302669065, 4.7
101902, 2.22374997129, -0.587312578766, 4.7
101903, 2.26600624553, -0.393974231617, 4.7
101904, 2.29148580235, -0.197719037096, 4.7
101905, 2.3, -5.63337527607e-16, 4.7
101906, 2.3, 0, 4.9
101907, 2.29148580235, 0.197719037096, 4.9
101908, 2.26600624553, 0.393974231617, 4.9
101909, 2.22374997129, 0.587312578766, 4.9
101910, 2.16502983028, 0.776302669065, 4.9
101911, 2.09028056588, 0.959545286007, 4.9
101912, 2.00005559549, 1.13568376537, 4.9
101913, 1.89502291324, 1.30341403947, 4.9
101914, 1.77596014434, 1.46149429204, 4.9
101915, 1.6437487879, 1.60875415222, 4.9
101916, 1.49936769052, 1.7441033595, 4.9
101917, 1.34388579934, 1.86653983571, 4.9
101918, 1.17845424789, 1.97515710403, 4.9
101919, 1.0042978335, 2.0691510002, 4.9
101920, 0.822705949315, 2.14782562629, 4.9
101921, 0.635023038123, 2.2105985029, 4.9
101922, 0.442638638532, 2.25700488162, 4.9
101923, 0.246977097327, 2.28670118585, 4.9
101924, 0.0494870241032, 2.29946755455, 4.9
101925, -0.148369433733, 2.29520946999, 4.9
101926, -0.345127416192, 2.27395845753, 4.9
101927, -0.539330196011, 2.23587185224, 4.9
101928, -0.729539963754, 2.18123163402, 4.9
101929, -0.914348472848, 2.11044233993, 4.9
101930, -1.09238746575, 2.02402806914, 4.9
101931, -1.26233880405, 1.92262860266, 4.9
101932, -1.4229442275, 1.80699466668, 4.9
101933, -1.57301466973, 1.6779823744, 4.9
101934, -1.7114390617, 1.53654688769, 4.9
101935, -1.83719255764, 1.38373534541, 4.9
101936, -1.94934412265, 1.22067911077, 4.9
101937, -2.0470634258, 1.04858539507, 4.9
101938, -2.12962698754, 0.868728319967, 4.9
101939, -2.19642353616, 0.682439484328, 4.9
101940, -2.24695853338, 0.491098105511, 4.9
101941, -2.28085783576, 0.29612080814, 4.9
101942, -2.29787046473, 0.0989511359102, 4.9
101943, -2.29787046473, -0.0989511359102, 4.9
101944, -2.28085783576, -0.29612080814, 4.9
101945, -2.24695853338, -0.491098105511, 4.9
101946, -2.19642353616, -0.682439484328, 4.9
101947, -2.12962698754, -0.868728319967, 4.9
101948, -2.0470634258, -1.04858539507, 4.9
101949, -1.94934412265, -1.22067911077, 4.9
101950, -1.83719255764, -1.38373534541, 4.9
101951, -1.7114390617, -1.53654688769, 4.9
101952, -1.57301466973, -1.6779823744, 4.9
101953, -1.4229442275, -1.80699466668, 4.9
101954, -1.26233880405, -1.92262860266, 4.9
101955, -1.09238746575, -2.02402806914, 4.9
101956, -0.914348472848, -2.11044233993, 4.9
101957, -0.729539963754, -2.18123163402, 4.9
101958, -0.539330196011, -2.23587185224, 4.9
101959, -0.345127416192, -2.27395845753, 4.9
101960, -0.148369433733, -2.29520946999, 4.9
101961, 0.0494870241032, -2.29946755455, 4.9
101962, 0.246977097327, -2.28670118585, 4.9
101963, 0.442638638532, -2.25700488162, 4.9
101964, 0.635023038123, -2.2105985029, 4.9
101965, 0.822705949315, -2.14782562629, 4.9
101966, 1.0042978335, -2.0691510002, 4.9
101967, 1.17845424789, -1.97515710403, 4.9
101968, 1.34388579934, -1.86653983571, 4.9
101969, 1.49936769052, -1.7441033595, 4.9
101970, 1.6437487879, -1.60875415222, 4.9
101971, 1.77596014434, -1.46149429204, 4.9
101972, 1.89502291324, -1.30341403947, 4.9
101973, 2.00005559549, -1.13568376537, 4.9
101974, 2.09028056588, -0.959545286007, 4.9
101975, 2.16502983028, -0.776302669065, 4.9
101976, 2.22374997129, -0.587312578766, 4.9
101977, 2.26600624553, -0.393974231617, 4.9
101978, 2.29148580235, -0.197719037096, 4.9
101979, 2.3, -5.63337527607e-16, 4.9
101980, 2.49797249542, 0.100664850273, 0
101981, 2.49797249542, 0.100664850273, 5
101982, 2.48177218524, 0.301341700638, 0
101983, 2.48177218524, 0.301341700638, 5
101984, 2.4494766301, 0.500064234439, 0
101985, 2.4494766301, 0.500064234439, 5
101986, 2.40129527907, 0.69554365979, 0
101987, 2.40129527907, 0.69554365979, 5
101988, 2.33754060671, 0.886512217605, 0
101989, 2.33754060671, 0.886512217605, 5
101990, 2.25862608652, 1.07173140351, 0
101991, 2.25862608652, 1.07173140351, 5
101992, 2.16506350946, 1.25, 0
101993, 2.16506350946, 1.25, 5
101994, 2.05745966473, 1.42016186683, 0
101995, 2.05745966473, 1.42016186683, 5
101996, 1.93651240457, 1.58111343899, 0
101997, 1.93651240457, 1.58111343899, 5
101998, 1.80300611836, 1.73181088377, 0
101999, 1.80300611836, 1.73181088377, 5
102000, 1.6578066456, 1.87127687042, 0
102001, 1.6578066456, 1.87127687042, 5
102002, 1.50185566059, 1.99860690851, 0
102003, 1.50185566059, 1.99860690851, 5
102004, 1.33616456532, 2.11297521386, 0
102005, 1.33616456532, 2.11297521386, 5
102006, 1.16180793011, 2.21364006413, 0
102007, 1.16180793011, 2.21364006413, 5
102008, 0.979916524648, 2.29994860914, 0
102009, 0.979916524648, 2.29994860914, 5
102010, 0.791669984502, 2.37134110486, 0
102011, 0.791669984502, 2.37134110486, 5
102012, 0.598289160718, 2.42735454356, 0
102013, 0.598289160718, 2.42735454356, 5
102014, 0.401028202144, 2.46762565659, 0
102015, 0.401028202144, 2.46762565659, 5
102016, 0.201166421791, 2.49189327033, 0
102017, 0.201166421791, 2.49189327033, 5
102018, 1.53080849893e-16, 2.5, 0
102019, 1.53080849893e-16, 2.5, 5
102020, -0.201166421791, 2.49189327033, 0
102021, -0.201166421791, 2.49189327033, 5
102022, -0.401028202144, 2.46762565659, 0
102023, -0.401028202144, 2.46762565659, 5
102024, -0.598289160718, 2.42735454356, 0
102025, -0.598289160718, 2.42735454356, 5
102026, -0.791669984502, 2.37134110486, 0
102027, -0.791669984502, 2.37134110486, 5
102028, -0.979916524648, 2.29994860914, 0
102029, -0.979916524648, 2.29994860914, 5
102030, -1.16180793011, 2.21364006413, 0
102031, -1.16180793011, 2.21364006413, 5
102032, -1.33616456532, 2.11297521386, 0
102033, -1.33616456532, 2.11297521386, 5
102034, -1.50185566059, 1.99860690851, 0
102035, -1.50185566059, 1.99860690851, 5
102036, -1.6578066456, 1.87127687042, 0
102037, -1.6578066456, 1.87127687042, 5
102038, -1.80300611836, 1.73181088377, 0
102039, -1.80300611836, 1.73181088377, 5
102040, -1.93651240457, 1.58111343899, 0
102041, -1.93651240457, 1.58111343899, 5
102042, -2.05745966473, 1.42016186683, 0
102043, -2.05745966473, 1.42016186683, 5
102044, -2.16506350946, 1.25, 0
102045, -2.16506350946, 1.25, 5
102046, -2.25862608652, 1.07173140351, 0
102047, -2.25862608652, 1.07173140351, 5
102048, -2.33754060671, 0.886512217605, 0
102049, -2.33754060671, 0.886512217605, 5
102050, -2.40129527907, 0.69554365979, 0
102051, -2.40129527907, 0.69554365979, 5
102052, -2.4494766301, 0.500064234439, 0
102053, -2.4494766301, 0.500064234439, 5
102054, -2.48177218524, 0.301341700638, 0
102055, -2.48177218524, 0.301341700638, 5
102056, -2.49797249542, 0.100664850273, 0
102057, -2.49797249542, 0.100664850273, 5
102058, -2.49797249542, -0.100664850273, 0
102059, -2.49797249542, -0.100664850273, 5
102060, -2.48177218524, -0.301341700638, 0
102061, -2.48177218524, -0.301341700638, 5
102062, -2.4494766301, -0.500064234439, 0
102063, -2.4494766301, -0.500064234439, 5
102064, -2.40129527907, -0.69554365979, 0
102065, -2.40129527907, -0.69554365979, 5
102066, -2.33754060671, -0.886512217605, 0
102067, -2.33754060671, -0.886512217605, 5
102068, -2.25862608652, -1.07173140351, 0
102069, -2.25862608652, -1.07173140351, 5
102070, -2.16506350946, -1.25, 0
102071, -2.16506350946, -1.25, 5
102072, -2.05745966473, -1.42016186683, 0
102073, -2.05745966473, -1.42016186683, 5
102074, -1.93651240457, -1.58111343899, 0
102075, -1.93651240457, -1.58111343899, 5
102076, -1.80300611836, -1.73181088377, 0
102077, -1.80300611836, -1.73181088377, 5
102078, -1.6578066456, -1.87127687042, 0
102079, -1.6578066456, -1.87127687042, 5
102080, -1.50185566059, -1.99860690851, 0
102081, -1.50185566059, -1.99860690851, 5
102082, -1.33616456532, -2.11297521386, 0
102083, -1.33616456532, -2.11297521386, 5
102084, -1.16180793011, -2.21364006413, 0
102085, -1.16180793011, -2.21364006413, 5
102086, -0.979916524648, -2.29994860914, 0
102087, -0.979916524648, -2.29994860914, 5
102088, -0.791669984502, -2.37134110486, 0
102089, -0.791669984502, -2.37134110486, 5
102090, -0.598289160718, -2.42735454356, 0
102091, -0.598289160718, -2.42735454356, 5
102092, -0.401028202144, -2.46762565659, 0
102093, -0.401028202144, -2.46762565659, 5
102094, -0.201166421791, -2.49189327033, 0
102095, -0.201166421791, -2.49189327033, 5
102096, -4.59242549679e-16, -2.5, 0
102097, -4.59242549679e-16, -2.5, 5
102098, 0.201166421791, -2.49189327033, 0
102099, 0.201166421791, -2.49189327033, 5
102100, 0.401028202144, -2.46762565659, 0
102101, 0.401028202144, -2.46762565659, 5
102102, 0.598289160718, -2.42735454356, 0
102103, 0.598289160718, -2.42735454356, 5
102104, 0.791669984502, -2.37134110486, 0
102105, 0.791669984502, -2.37134110486, 5
102106, 0.979916524648, -2.29994860914, 0
102107, 0.979916524648, -2.29994860914, 5
102108, 1.16180793011, -2.21364006413, 0
102109, 1.16180793011, -2.21364006413, 5
102110, 1.33616456532, -2.11297521386, 0
102111, 1.33616456532, -2.11297521386, 5
102112, 1.50185566059, -1.99860690851, 0
102113, 1.50185566059, -1.99860690851, 5
102114, 1.6578066456, -1.87127687042, 0
102115, 1.6578066456, -1.87127687042, 5
102116, 1.80300611836, -1.73181088377, 0
102117, 1.80300611836, -1.73181088377, 5
102118, 1.93651240457, -1.58111343899, 0
102119, 1.93651240457, -1.58111343899, 5
102120, 2.05745966473, -1.42016186683, 0
102121, 2.05745966473, -1.42016186683, 5
102122, 2.16506350946, -1.25, 0
102123, 2.16506350946, -1.25, 5
102124, 2.25862608652, -1.07173140351, 0
102125, 2.25862608652, -1.07173140351, 5
102126, 2.33754060671, -0.886512217605, 0
102127, 2.33754060671, -0.886512217605, 5
102128, 2.40129527907, -0.69554365979, 0
102129, 2.40129527907, -0.69554365979, 5
102130, 2.4494766301, -0.500064234439, 0
102131, 2.4494766301, -0.500064234439, 5
102132, 2.48177218524, -0.301341700638, 0
102133, 2.48177218524, -0.301341700638, 5
102134, 2.49797249542, -0.100664850273, 0
102135, 2.49797249542, -0.100664850273, 5
102136, 2.7, 0, 0.1
102137, 2.69262676814, 0.199401824182, 0.1
102138, 2.6705473426, 0.397714584747, 0.1
102139, 2.63388231354, 0.593855166166, 0.1
102140, 2.58283193265, 0.7867523166, 0.1
102141, 2.51767501939, 0.975352498704, 0.1
102142, 2.43876743823, 1.15862564368, 0.1
102143, 2.34654015502, 1.33557077718, 0.1
102144, 2.2414968832, 1.50522148622, 0.1
102145, 2.12421133269, 1.66665119748, 0.1
102146, 1.99532407649, 1.81897823784, 0.1
102147, 1.85553905211, 1.96137064984, 0.1
102148, 1.70561971688, 2.0930507355, 0.1
102149, 1.54638487821, 2.21329930385, 0.1
102150, 1.37870422159, 2.32145959891, 0.1
102151, 1.20349356059, 2.41694088665, 0.1
102152, 1.02170983511, 2.49922168141, 0.1
102153, 0.834345884811, 2.56785259399, 0.1
102154, 0.642425026614, 2.62245878617, 0.1
102155, 0.446995465696, 2.66274201785, 0.1
102156, 0.249124570551, 2.68848227599, 0.1
102157, 0.0498930433896, 2.69953897623, 0.1
102158, -0.149610982273, 2.69585173071, 0.1
102159, -0.348297884631, 2.67744067787, 0.1
102160, -0.545082504723, 2.64440637252, 0.1
102161, -0.738890073193, 2.59692923656, 0.1
102162, -0.92866208031, 2.53526857366, 0.1
102163, -1.11336205718, 2.45976115296, 0.1
102164, -1.29198123657, 2.37081936982, 0.1
102165, -1.46354406247, 2.26892899342, 0.1
102166, -1.62711351822, 2.15464651365, 0.1
102167, -1.78179624417, 2.0285961018, 0.1
102168, -1.92674741691, 1.8914662015, 0.1
102169, -2.0611753634, 1.74400576871, 0.1
102170, -2.18434588481, 1.58702018119, 0.1
102171, -2.29558626647, 1.42136683977, 0.1
102172, -2.39428895198, 1.24795048556, 0.1
102173, -2.47991486151, 1.06771825855, 0.1
102174, -2.55199633603, 0.881654524667, 0.1
102175, -2.61013969152, 0.690775499504, 0.1
102176, -2.65402736914, 0.496123698104, 0.1
102177, -2.68341966961, 0.298762241107, 0.1
102178, -2.69815606238, 0.0997690483505, 0.1
102179, -2.69815606238, -0.0997690483505, 0.1
102180, -2.68341966961, -0.298762241107, 0.1
102181, -2.65402736914, -0.496123698104, 0.1
102182, -2.61013969152, -0.690775499504, 0.1
102183, -2.55199633603, -0.881654524667, 0.1
102184, -2.47991486151, -1.06771825855, 0.1
102185, -2.39428895198, -1.24795048556, 0.1
102186, -2.29558626647, -1.42136683977, 0.1
102187, -2.18434588481, -1.58702018119, 0.1
102188, -2.0611753634, -1.74400576871, 0.1
102189, -1.92674741691, -1.8914662015, 0.1
102190, -1.78179624417, -2.0285961018, 0.1
102191, -1.62711351822, -2.15464651365, 0.1
102192, -1.46354406247, -2.26892899342, 0.1
102193, -1.29198123657, -2.37081936982, 0.1
102194, -1.11336205718, -2.45976115296, 0.1
102195, -0.92866208031, -2.53526857366, 0.1
102196, -0.738890073193, -2.59692923656, 0.1
102197, -0.545082504723, -2.64440637252, 0.1
102198, -0.348297884631, -2.67744067787, 0.1
102199, -0.149610982273, -2.69585173071, 0.1
102200, 0.0498930433896, -2.69953897623, 0.1
102201, 0.249124570551, -2.68848227599, 0.1
102202, 0.446995465696, -2.66274201785, 0.1
102203, 0.642425026614, -2.62245878617, 0.1
102204, 0.834345884811, -2.56785259399, 0.1
102205, 1.02170983511, -2.49922168141, 0.1
102206, 1.20349356059, -2.41694088665, 0.1
102207, 1.37870422159, -2.32145959891, 0.1
102208, 1.54638487821, -2.21329930385, 0.1
102209, 1.70561971688, -2.0930507355, 0.1
102210, 1.85553905211, -1.96137064984, 0.1
102211, 1.99532407649, -1.81897823784, 0.1
102212, 2.12421133269, -1.66665119748, 0.1
102213, 2.2414968832, -1.50522148622, 0.1
102214, 2.34654015502, -1.33557077718, 0.1
102215, 2.43876743823, -1.15862564368, 0.1
102216, 2.51767501939, -0.975352498704, 0.1
102217, 2.58283193265, -0.7867523166, 0.1
102218, 2.63388231354, -0.593855166166, 0.1
102219, 2.6705473426, -0.397714584747, 0.1
102220, 2.69262676814, -0.199401824182, 0.1
102221, 2.7, -6.61309271538e-16, 0.1
102222, 2.7, 0, 0.3
102223, 2.69262676814, 0.199401824182, 0.3
102224, 2.6705473426, 0.397714584747, 0.3
102225, 2.63388231354, 0.593855166166, 0.3
102226, 2.58283193265, 0.7867523166, 0.3
102227, 2.51767501939, 0.975352498704, 0.3
102228, 2.43876743823, 1.15862564368, 0.3
102229, 2.34654015502, 1.33557077718, 0.3
102230, 2.2414968832, 1.50522148622, 0.3
102231, 2.12421133269, 1.66665119748, 0.3
102232, 1.99532407649, 1.81897823784, 0.3
102233, 1.85553905211, 1.96137064984, 0.3
102234, 1.70561971688, 2.0930507355, 0.3
102235, 1.54638487821, 2.21329930385, 0.3
102236, 1.37870422159, 2.32145959891, 0.3
102237, 1.20349356059, 2.41694088665, 0.3
102238, 1.02170983511, 2.49922168141, 0.3
102239, 0.834345884811, 2.56785259399, 0.3
102240, 0.642425026614, 2.62245878617, 0.3
102241, 0.446995465696, 2.66274201785, 0.3
102242, 0.249124570551, 2.68848227599, 0.3
102243, 0.0498930433896, 2.69953897623, 0.3
102244, -0.149610982273, 2.69585173071, 0.3
102245, -0.348297884631, 2.67744067787, 0.3
102246, -0.545082504723, 2.64440637252, 0.3
102247, -0.738890073193, 2.59692923656, 0.3
102248, -0.92866208031, 2.53526857366, 0.3
102249, -1.11336205718, 2.45976115296, 0.3
102250, -1.29198123657, 2.37081936982, 0.3
102251, -1.46354406247, 2.26892899342, 0.3
102252, -1.62711351822, 2.15464651365, 0.3
102253, -1.78179624417, 2.0285961018, 0.3
102254, -1.92674741691, 1.8914662015, 0.3
102255, -2.0611753634, 1.74400576871, 0.3
102256, -2.18434588481, 1.58702018119, 0.3
102257, -2.29558626647, 1.42136683977, 0.3
102258, -2.39428895198, 1.24795048556, 0.3
102259, -2.47991486151, 1.06771825855, 0.3
102260, -2.55199633603, 0.881654524667, 0.3
102261, -2.61013969152, 0.690775499504, 0.3
102262, -2.65402736914, 0.496123698104, 0.3
102263, -2.68341966961, 0.298762241107, 0.3
102264, -2.69815606238, 0.0997690483505, 0.3
102265, -2.69815606238, -0.0997690483505, 0.3
102266, -2.68341966961, -0.298762241107, 0.3
102267, -2.65402736914, -0.496123698104, 0.3
102268, -2.61013969152, -0.690775499504, 0.3
102269, -2.55199633603, -0.881654524667, 0.3
102270, -2.47991486151, -1.06771825855, 0.3
102271, -2.39428895198, -1.24795048556, 0.3
102272, -2.29558626647, -1.42136683977, 0.3
102273, -2.18434588481, -1.58702018119, 0.3
102274, -2.0611753634, -1.74400576871, 0.3
102275, -1.92674741691, -1.8914662015, 0.3
102276, -1.78179624417, -2.0285961018, 0.3
102277, -1.62711351822, -2.15464651365, 0.3
102278, -1.46354406247, -2.26892899342, 0.3
102279, -1.29198123657, -2.37081936982, 0.3
102280, -1.11336205718, -2.45976115296, 0.3
102281, -0.92866208031, -2.53526857366, 0.3
102282, -0.738890073193, -2.59692923656, 0.3
102283, -0.545082504723, -2.64440637252, 0.3
102284, -0.348297884631, -2.67744067787, 0.3
102285, -0.149610982273, -2.69585173071, 0.3
102286, 0.0498930433896, -2.69953897623, 0.3
102287, 0.249124570551, -2.68848227599, 0.3
102288, 0.446995465696, -2.66274201785, 0.3
102289, 0.642425026614, -2.62245878617, 0.3
102290, 0.834345884811, -2.56785259399, 0.3
102291, 1.02170983511, -2.49922168141, 0.3
102292, 1.20349356059, -2.41694088665, 0.3
102293, 1.37870422159, -2.32145959891, 0.3
102294, 1.54638487821, -2.21329930385, 0.3
102295, 1.70561971688, -2.0930507355, 0.3
102296, 1.85553905211, -1.96137064984, 0.3
102297, 1.99532407649, -1.81897823784, 0.3
102298, 2.12421133269, -1.66665119748, 0.3
102299, 2.2414968832, -1.50522148622, 0.3
102300, 2.34654015502, -1.33557077718, 0.3
102301, 2.43876743823, -1.15862564368, 0.3
102302, 2.51767501939, -0.975352498704, 0.3
102303, 2.58283193265, -0.7867523166, 0.3
102304, 2.63388231354, -0.593855166166, 0.3
102305, 2.6705473426, -0.397714584747, 0.3
102306, 2.69262676814, -0.199401824182, 0.3
102307, 2.7, -6.61309271538e-16, 0.3
102308, 2.7, 0, 0.5
102309, 2.69262676814, 0.199401824182, 0.5
102310, 2.6705473426, 0.397714584747, 0.5
102311, 2.63388231354, 0.593855166166, 0.5
102312, 2.58283193265, 0.7867523166, 0.5
102313, 2.51767501939, 0.975352498704, 0.5
102314, 2.43876743823, 1.15862564368, 0.5
102315, 2.34654015502, 1.33557077718, 0.5
102316, 2.2414968832, 1.50522148622, 0.5
102317, 2.12421133269, 1.66665119748, 0.5
102318, 1.99532407649, 1.81897823784, 0.5
102319, 1.85553905211, 1.96137064984, 0.5
102320, 1.70561971688, 2.0930507355, 0.5
102321, 1.54638487821, 2.21329930385, 0.5
102322, 1.37870422159, 2.32145959891, 0.5
102323, 1.20349356059, 2.41694088665, 0.5
102324, 1.02170983511, 2.49922168141, 0.5
102325, 0.834345884811, 2.56785259399, 0.5
102326, 0.642425026614, 2.62245878617, 0.5
102327, 0.446995465696, 2.66274201785, 0.5
102328, 0.249124570551, 2.68848227599, 0.5
102329, 0.0498930433896, 2.69953897623, 0.5
102330, -0.149610982273, 2.69585173071, 0.5
102331, -0.348297884631, 2.67744067787, 0.5
102332, -0.545082504723, 2.64440637252, 0.5
102333, -0.738890073193, 2.59692923656, 0.5
102334, -0.92866208031, 2.53526857366, 0.5
102335, -1.11336205718, 2.45976115296, 0.5
102336, -1.29198123657, 2.37081936982, 0.5
102337, -1.46354406247, 2.26892899342, 0.5
102338, -1.62711351822, 2.15464651365, 0.5
102339, -1.78179624417, 2.0285961018, 0.5
102340, -1.92674741691, 1.8914662015, 0.5
102341, -2.0611753634, 1.74400576871, 0.5
102342, -2.18434588481, 1.58702018119, 0.5
102343, -2.29558626647, 1.42136683977, 0.5
102344, -2.39428895198, 1.24795048556, 0.5
102345, -2.47991486151, 1.06771825855, 0.5
102346, -2.55199633603, 0.881654524667, 0.5
102347, -2.61013969152, 0.690775499504, 0.5
102348, -2.65402736914, 0.496123698104, 0.5
102349, -2.68341966961, 0.298762241107, 0.5
102350, -2.69815606238, 0.0997690483505, 0.5
102351, -2.69815606238, -0.0997690483505, 0.5
102352, -2.68341966961, -0.298762241107, 0.5
102353, -2.65402736914, -0.496123698104, 0.5
102354, -2.61013969152, -0.690775499504, 0.5
102355, -2.55199633603, -0.881654524667, 0.5
102356, -2.47991486151, -1.06771825855, 0.5
102357, -2.39428895198, -1.24795048556, 0.5
102358, -2.29558626647, -1.42136683977, 0.5
102359, -2.18434588481, -1.58702018119, 0.5
102360, -2.0611753634, -1.74400576871, 0.5
102361, -1.92674741691, -1.8914662015, 0.5
102362, -1.78179624417, -2.0285961018, 0.5
102363, -1.62711351822, -2.15464651365, 0.5
102364, -1.46354406247, -2.26892899342, 0.5
102365, -1.29198123657, -2.37081936982, 0.5
102366, -1.11336205718, -2.45976115296, 0.5
102367, -0.92866208031, -2.53526857366, 0.5
102368, -0.738890073193, -2.59692923656, 0.5
102369, -0.545082504723, -2.64440637252, 0.5
102370, -0.348297884631, -2.67744067787, 0.5
102371, -0.149610982273, -2.69585173071, 0.5
102372, 0.0498930433896, -2.69953897623, 0.5
102373, 0.249124570551, -2.68848227599, 0.5
102374, 0.446995465696, -2.66274201785, 0.5
102375, 0.642425026614, -2.62245878617, 0.5
102376, 0.834345884811, -2.56785259399, 0.5
102377, 1.02170983511, -2.49922168141, 0.5
102378, 1.20349356059, -2.41694088665, 0.5
102379, 1.37870422159, -2.32145959891, 0.5
102380, 1.54638487821, -2.21329930385, 0.5
102381, 1.70561971688, -2.0930507355, 0.5
102382, 1.85553905211, -1.96137064984, 0.5
102383, 1.99532407649, -1.81897823784, 0.5
102384, 2.12421133269, -1.66665119748, 0.5
102385, 2.2414968832, -1.50522148622, 0.5
102386, 2.34654015502, -1.33557077718, 0.5
102387, 2.43876743823, -1.15862564368, 0.5
102388, 2.51767501939, -0.975352498704, 0.5
102389, 2.58283193265, -0.7867523166, 0.5
102390, 2.63388231354, -0.593855166166, 0.5
102391, 2.6705473426, -0.397714584747, 0.5
102392, 2.69262676814, -0.199401824182, 0.5
102393, 2.7, -6.61309271538e-16, 0.5
102394, 2.7, 0, 0.7
102395, 2.69262676814, 0.199401824182, 0.7
102396, 2.6705473426, 0.397714584747, 0.7
102397, 2.63388231354, 0.593855166166, 0.7
102398, 2.58283193265, 0.7867523166, 0.7
102399, 2.51767501939, 0.975352498704, 0.7
102400, 2.43876743823, 1.15862564368, 0.7
102401, 2.34654015502, 1.33557077718, 0.7
102402, 2.2414968832, 1.50522148622, 0.7
102403, 2.12421133269, 1.66665119748, 0.7
102404, 1.99532407649, 1.81897823784, 0.7
102405, 1.85553905211, 1.96137064984, 0.7
102406, 1.70561971688, 2.0930507355, 0.7
102407, 1.54638487821, 2.21329930385, 0.7
102408, 1.37870422159, 2.32145959891, 0.7
102409, 1.20349356059, 2.41694088665, 0.7
102410, 1.02170983511, 2.49922168141, 0.7
102411, 0.834345884811, 2.56785259399, 0.7
102412, 0.642425026614, 2.62245878617, 0.7
102413, 0.446995465696, 2.66274201785, 0.7
102414, 0.249124570551, 2.68848227599, 0.7
102415, 0.0498930433896, 2.69953897623, 0.7
102416, -0.149610982273, 2.69585173071, 0.7
102417, -0.348297884631, 2.67744067787, 0.7
102418, -0.545082504723, 2.64440637252, 0.7
102419, -0.738890073193, 2.59692923656, 0.7
102420, -0.92866208031, 2.53526857366, 0.7
102421, -1.11336205718, 2.45976115296, 0.7
102422, -1.29198123657, 2.37081936982, 0.7
102423, -1.46354406247, 2.26892899342, 0.7
102424, -1.62711351822, 2.15464651365, 0.7
102425, -1.78179624417, 2.0285961018, 0.7
102426, -1.92674741691, 1.8914662015, 0.7
102427, -2.0611753634, 1.74400576871, 0.7
102428, -2.18434588481, 1.58702018119, 0.7
102429, -2.29558626647, 1.42136683977, 0.7
102430, -2.39428895198, 1.24795048556, 0.7
102431, -2.47991486151, 1.06771825855, 0.7
102432, -2.55199633603, 0.881654524667, 0.7
102433, -2.61013969152, 0.690775499504, 0.7
102434, -2.65402736914, 0.496123698104, 0.7
102435, -2.68341966961, 0.298762241107, 0.7
102436, -2.69815606238, 0.0997690483505, 0.7
102437, -2.69815606238, -0.0997690483505, 0.7
102438, -2.68341966961, -0.298762241107, 0.7
102439, -2.65402736914, -0.496123698104, 0.7
102440, -2.61013969152, -0.690775499504, 0.7
102441, -2.55199633603, -0.881654524667, 0.7
102442, -2.47991486151, -1.06771825855, 0.7
102443, -2.39428895198, -1.24795048556, 0.7
102444, -2.29558626647, -1.42136683977, 0.7
102445, -2.18434588481, -1.58702018119, 0.7
102446, -2.0611753634, -1.74400576871, 0.7
102447, -1.92674741691, -1.8914662015, 0.7
102448, -1.78179624417, -2.0285961018, 0.7
102449, -1.62711351822, -2.15464651365, 0.7
102450, -1.46354406247, -2.26892899342, 0.7
102451, -1.29198123657, -2.37081936982, 0.7
102452, -1.11336205718, -2.45976115296, 0.7
102453, -0.92866208031, -2.53526857366, 0.7
102454, -0.738890073193, -2.59692923656, 0.7
102455, -0.545082504723, -2.64440637252, 0.7
102456, -0.348297884631, -2.67744067787, 0.7
102457, -0.149610982273, -2.69585173071, 0.7
102458, 0.0498930433896, -2.69953897623, 0.7
102459, 0.249124570551, -2.68848227599, 0.7
102460, 0.446995465696, -2.66274201785, 0.7
102461, 0.642425026614, -2.62245878617, 0.7
102462, 0.834345884811, -2.56785259399, 0.7
102463, 1.02170983511, -2.49922168141, 0.7
102464, 1.20349356059, -2.41694088665, 0.7
102465, 1.37870422159, -2.32145959891, 0.7
102466, 1.54638487821, -2.21329930385, 0.7
102467, 1.70561971688, -2.0930507355, 0.7
102468, 1.85553905211, -1.96137064984, 0.7
102469, 1.99532407649, -1.81897823784, 0.7
102470, 2.12421133269, -1.66665119748, 0.7
102471, 2.2414968832, -1.50522148622, 0.7
102472, 2.34654015502, -1.33557077718, 0.7
102473, 2.43876743823, -1.15862564368, 0.7
102474, 2.51767501939, -0.975352498704, 0.7
102475, 2.58283193265, -0.7867523166, 0.7
102476, 2.63388231354, -0.593855166166, 0.7
102477, 2.6705473426, -0.397714584747, 0.7
102478, 2.69262676814, -0.199401824182, 0.7
102479, 2.7, -6.61309271538e-16, 0.7
102480, 2.7, 0, 0.9
102481, 2.69262676814, 0.199401824182, 0.9
102482, 2.6705473426, 0.397714584747, 0.9
102483, 2.63388231354, 0.593855166166, 0.9
102484, 2.58283193265, 0.7867523166, 0.9
102485, 2.51767501939, 0.975352498704, 0.9
102486, 2.43876743823, 1.15862564368, 0.9
102487, 2.34654015502, 1.33557077718, 0.9
102488, 2.2414968832, 1.50522148622, 0.9
102489, 2.12421133269, 1.66665119748, 0.9
102490, 1.99532407649, 1.81897823784, 0.9
102491, 1.85553905211, 1.96137064984, 0.9
102492, 1.70561971688, 2.0930507355, 0.9
102493, 1.54638487821, 2.21329930385, 0.9
102494, 1.37870422159, 2.32145959891, 0.9
102495, 1.20349356059, 2.41694088665, 0.9
102496, 1.02170983511, 2.49922168141, 0.9
102497, 0.834345884811, 2.56785259399, 0.9
102498, 0.642425026614, 2.62245878617, 0.9
102499, 0.446995465696, 2.66274201785, 0.9
102500, 0.249124570551, 2.68848227599, 0.9
102501, 0.0498930433896, 2.69953897623, 0.9
102502, -0.149610982273, 2.69585173071, 0.9
102503, -0.348297884631, 2.67744067787, 0.9
102504, -0.545082504723, 2.64440637252, 0.9
102505, -0.738890073193, 2.59692923656, 0.9
102506, -0.92866208031, 2.53526857366, 0.9
102507, -1.11336205718, 2.45976115296, 0.9
102508, -1.29198123657, 2.37081936982, 0.9
102509, -1.46354406247, 2.26892899342, 0.9
102510, -1.62711351822, 2.15464651365, 0.9
102511, -1.78179624417, 2.0285961018, 0.9
102512, -1.92674741691, 1.8914662015, 0.9
102513, -2.0611753634, 1.74400576871, 0.9
102514, -2.18434588481, 1.58702018119, 0.9
102515, -2.29558626647, 1.42136683977, 0.9
102516, -2.39428895198, 1.24795048556, 0.9
102517, -2.47991486151, 1.06771825855, 0.9
102518, -2.55199633603, 0.881654524667, 0.9
102519, -2.61013969152, 0.690775499504, 0.9
102520, -2.65402736914, 0.496123698104, 0.9
102521, -2.68341966961, 0.298762241107, 0.9
102522, -2.69815606238, 0.0997690483505, 0.9
102523, -2.69815606238, -0.0997690483505, 0.9
102524, -2.68341966961, -0.298762241107, 0.9
102525, -2.65402736914, -0.496123698104, 0.9
102526, -2.61013969152, -0.690775499504, 0.9
102527, -2.55199633603, -0.881654524667, 0.9
102528, -2.47991486151, -1.06771825855, 0.9
102529, -2.39428895198, -1.24795048556, 0.9
102530, -2.29558626647, -1.42136683977, 0.9
102531, -2.18434588481, -1.58702018119, 0.9
102532, -2.0611753634, -1.74400576871, 0.9
102533, -1.92674741691, -1.8914662015, 0.9
102534, -1.78179624417, -2.0285961018, 0.9
102535, -1.62711351822, -2.15464651365, 0.9
102536, -1.46354406247, -2.26892899342, 0.9
102537, -1.29198123657, -2.37081936982, 0.9
102538, -1.11336205718, -2.45976115296, 0.9
102539, -0.92866208031, -2.53526857366, 0.9
102540, -0.738890073193, -2.59692923656, 0.9
102541, -0.545082504723, -2.64440637252, 0.9
102542, -0.348297884631, -2.67744067787, 0.9
102543, -0.149610982273, -2.69585173071, 0.9
102544, 0.0498930433896, -2.69953897623, 0.9
102545, 0.249124570551, -2.68848227599, 0.9
102546, 0.446995465696, -2.66274201785, 0.9
102547, 0.642425026614, -2.62245878617, 0.9
102548, 0.834345884811, -2.56785259399, 0.9
102549, 1.02170983511, -2.49922168141, 0.9
102550, 1.20349356059, -2.41694088665, 0.9
102551, 1.37870422159, -2.32145959891, 0.9
102552, 1.54638487821, -2.21329930385, 0.9
102553, 1.70561971688, -2.0930507355, 0.9
102554, 1.85553905211, -1.96137064984, 0.9
102555, 1.99532407649, -1.81897823784, 0.9
102556, 2.12421133269, -1.66665119748, 0.9
102557, 2.2414968832, -1.50522148622, 0.9
102558, 2.34654015502, -1.33557077718, 0.9
102559, 2.43876743823, -1.15862564368, 0.9
102560, 2.51767501939, -0.975352498704, 0.9
102561, 2.58283193265, -0.7867523166, 0.9
102562, 2.63388231354, -0.593855166166, 0.9
102563, 2.6705473426, -0.397714584747, 0.9
102564, 2.69262676814, -0.199401824182, 0.9
102565, 2.7, -6.61309271538e-16, 0.9
102566, 2.7, 0, 1.1
102567, 2.69262676814, 0.199401824182, 1.1
102568, 2.6705473426, 0.397714584747, 1.1
102569, 2.63388231354, 0.593855166166, 1.1
102570, 2.58283193265, 0.7867523166, 1.1
102571, 2.51767501939, 0.975352498704, 1.1
102572, 2.43876743823, 1.15862564368, 1.1
102573, 2.34654015502, 1.33557077718, 1.1
102574, 2.2414968832, 1.50522148622, 1.1
102575, 2.12421133269, 1.66665119748, 1.1
102576, 1.99532407649, 1.81897823784, 1.1
102577, 1.85553905211, 1.96137064984, 1.1
102578, 1.70561971688, 2.0930507355, 1.1
102579, 1.54638487821, 2.21329930385, 1.1
102580, 1.37870422159, 2.32145959891, 1.1
102581, 1.20349356059, 2.41694088665, 1.1
102582, 1.02170983511, 2.49922168141, 1.1
102583, 0.834345884811, 2.56785259399, 1.1
102584, 0.642425026614, 2.62245878617, 1.1
102585, 0.446995465696, 2.66274201785, 1.1
102586, 0.249124570551, 2.68848227599, 1.1
102587, 0.0498930433896, 2.69953897623, 1.1
102588, -0.149610982273, 2.69585173071, 1.1
102589, -0.348297884631, 2.67744067787, 1.1
102590, -0.545082504723, 2.64440637252, 1.1
102591, -0.738890073193, 2.59692923656, 1.1
102592, -0.92866208031, 2.53526857366, 1.1
102593, -1.11336205718, 2.45976115296, 1.1
102594, -1.29198123657, 2.37081936982, 1.1
102595, -1.46354406247, 2.26892899342, 1.1
102596, -1.62711351822, 2.15464651365, 1.1
102597, -1.78179624417, 2.0285961018, 1.1
102598, -1.92674741691, 1.8914662015, 1.1
102599, -2.0611753634, 1.74400576871, 1.1
102600, -2.18434588481, 1.58702018119, 1.1
102601, -2.29558626647, 1.42136683977, 1.1
102602, -2.39428895198, 1.24795048556, 1.1
102603, -2.47991486151, 1.06771825855, 1.1
102604, -2.55199633603, 0.881654524667, 1.1
102605, -2.61013969152, 0.690775499504, 1.1
102606, -2.65402736914, 0.496123698104, 1.1
102607, -2.68341966961, 0.298762241107, 1.1
102608, -2.69815606238, 0.0997690483505, 1.1
102609, -2.69815606238, -0.0997690483505, 1.1
102610, -2.68341966961, -0.298762241107, 1.1
102611, -2.65402736914, -0.496123698104, 1.1
102612, -2.61013969152, -0.690775499504, 1.1
102613, -2.55199633603, -0.881654524667, 1.1
102614, -2.47991486151, -1.06771825855, 1.1
102615, -2.39428895198, -1.24795048556, 1.1
102616, -2.29558626647, -1.42136683977, 1.1
102617, -2.18434588481, -1.58702018119, 1.1
102618, -2.0611753634, -1.74400576871, 1.1
102619, -1.92674741691, -1.8914662015, 1.1
102620, -1.78179624417, -2.0285961018, 1.1
102621, -1.62711351822, -2.15464651365, 1.1
102622, -1.46354406247, -2.26892899342, 1.1
102623, -1.29198123657, -2.37081936982, 1.1
102624, -1.11336205718, -2.45976115296, 1.1
102625, -0.92866208031, -2.53526857366, 1.1
102626, -0.738890073193, -2.59692923656, 1.1
102627, -0.545082504723, -2.64440637252, 1.1
102628, -0.348297884631, -2.67744067787, 1.1
102629, -0.149610982273, -2.69585173071, 1.1
102630, 0.0498930433896, -2.69953897623, 1.1
102631, 0.249124570551, -2.68848227599, 1.1
102632, 0.446995465696, -2.66274201785, 1.1
102633, 0.642425026614, -2.62245878617, 1.1
102634, 0.834345884811, -2.56785259399, 1.1
102635, 1.02170983511, -2.49922168141, 1.1
102636, 1.20349356059, -2.41694088665, 1.1
102637, 1.37870422159, -2.32145959891, 1.1
102638, 1.54638487821, -2.21329930385, 1.1
102639, 1.70561971688, -2.0930507355, 1.1
102640, 1.85553905211, -1.96137064984, 1.1
102641, 1.99532407649, -1.81897823784, 1.1
102642, 2.12421133269, -1.66665119748, 1.1
102643, 2.2414968832, -1.50522148622, 1.1
102644, 2.34654015502, -1.33557077718, 1.1
102645, 2.43876743823, -1.15862564368, 1.1
102646, 2.51767501939, -0.975352498704, 1.1
102647, 2.58283193265, -0.7867523166, 1.1
102648, 2.63388231354, -0.593855166166, 1.1
102649, 2.6705473426, -0.397714584747, 1.1
102650, 2.69262676814, -0.199401824182, 1.1
102651, 2.7, -6.61309271538e-16, 1.1
102652, 2.7, 0, 1.3
102653, 2.69262676814, 0.199401824182, 1.3
102654, 2.6705473426, 0.397714584747, 1.3
102655, 2.63388231354, 0.593855166166, 1.3
102656, 2.58283193265, 0.7867523166, 1.3
102657, 2.51767501939, 0.975352498704, 1.3
102658, 2.43876743823, 1.15862564368, 1.3
102659, 2.34654015502, 1.33557077718, 1.3
102660, 2.2414968832, 1.50522148622, 1.3
102661, 2.12421133269, 1.66665119748, 1.3
102662, 1.99532407649, 1.81897823784, 1.3
102663, 1.85553905211, 1.96137064984, 1.3
102664, 1.70561971688, 2.0930507355, 1.3
102665, 1.54638487821, 2.21329930385, 1.3
102666, 1.37870422159, 2.32145959891, 1.3
102667, 1.20349356059, 2.41694088665, 1.3
102668, 1.02170983511, 2.49922168141, 1.3
102669, 0.834345884811, 2.56785259399, 1.3
102670, 0.642425026614, 2.62245878617, 1.3
102671, 0.446995465696, 2.66274201785, 1.3
102672, 0.249124570551, 2.68848227599, 1.3
102673, 0.0498930433896, 2.69953897623, 1.3
102674, -0.149610982273, 2.69585173071, 1.3
102675, -0.348297884631, 2.67744067787, 1.3
102676, -0.545082504723, 2.64440637252, 1.3
102677, -0.738890073193, 2.59692923656, 1.3
102678, -0.92866208031, 2.53526857366, 1.3
102679, -1.11336205718, 2.45976115296, 1.3
102680, -1.29198123657, 2.37081936982, 1.3
102681, -1.46354406247, 2.26892899342, 1.3
102682, -1.62711351822, 2.15464651365, 1.3
102683, -1.78179624417, 2.0285961018, 1.3
102684, -1.92674741691, 1.8914662015, 1.3
102685, -2.0611753634, 1.74400576871, 1.3
102686, -2.18434588481, 1.58702018119, 1.3
102687, -2.29558626647, 1.42136683977, 1.3
102688, -2.39428895198, 1.24795048556, 1.3
102689, -2.47991486151, 1.06771825855, 1.3
102690, -2.55199633603, 0.881654524667, 1.3
102691, -2.61013969152, 0.690775499504, 1.3
102692, -2.65402736914, 0.496123698104, 1.3
102693, -2.68341966961, 0.298762241107, 1.3
102694, -2.69815606238, 0.0997690483505, 1.3
102695, -2.69815606238, -0.0997690483505, 1.3
102696, -2.68341966961, -0.298762241107, 1.3
102697, -2.65402736914, -0.496123698104, 1.3
102698, -2.61013969152, -0.690775499504, 1.3
102699, -2.55199633603, -0.881654524667, 1.3
102700, -2.47991486151, -1.06771825855, 1.3
102701, -2.39428895198, -1.24795048556, 1.3
102702, -2.29558626647, -1.42136683977, 1.3
102703, -2.18434588481, -1.58702018119, 1.3
102704, -2.0611753634, -1.74400576871, 1.3
102705, -1.92674741691, -1.8914662015, 1.3
102706, -1.78179624417, -2.0285961018, 1.3
102707, -1.62711351822, -2.15464651365, 1.3
102708, -1.46354406247, -2.26892899342, 1.3
102709, -1.29198123657, -2.37081936982, 1.3
102710, -1.11336205718, -2.45976115296, 1.3
102711, -0.92866208031, -2.53526857366, 1.3
102712, -0.738890073193, -2.59692923656, 1.3
102713, -0.545082504723, -2.64440637252, 1.3
102714, -0.348297884631, -2.67744067787, 1.3
102715, -0.149610982273, -2.69585173071, 1.3
102716, 0.0498930433896, -2.69953897623, 1.3
102717, 0.249124570551, -2.68848227599, 1.3
102718, 0.446995465696, -2.66274201785, 1.3
102719, 0.642425026614, -2.62245878617, 1.3
102720, 0.834345884811, -2.56785259399, 1.3
102721, 1.02170983511, -2.49922168141, 1.3
102722, 1.20349356059, -2.41694088665, 1.3
102723, 1.37870422159, -2.32145959891, 1.3
102724, 1.54638487821, -2.21329930385, 1.3
102725, 1.70561971688, -2.0930507355, 1.3
102726, 1.85553905211, -1.96137064984, 1.3
102727, 1.99532407649, -1.81897823784, 1.3
102728, 2.12421133269, -1.66665119748, 1.3
102729, 2.2414968832, -1.50522148622, 1.3
102730, 2.34654015502, -1.33557077718, 1.3
102731, 2.43876743823, -1.15862564368, 1.3
102732, 2.51767501939, -0.975352498704, 1.3
102733, 2.58283193265, -0.7867523166, 1.3
102734, 2.63388231354, -0.593855166166, 1.3
102735, 2.6705473426, -0.397714584747, 1.3
102736, 2.69262676814, -0.199401824182, 1.3
102737, 2.7, -6.61309271538e-16, 1.3
102738, 2.7, 0, 1.5
102739, 2.69262676814, 0.199401824182, 1.5
102740, 2.6705473426, 0.397714584747, 1.5
102741, 2.63388231354, 0.593855166166, 1.5
102742, 2.58283193265, 0.7867523166, 1.5
102743, 2.51767501939, 0.975352498704, 1.5
102744, 2.43876743823, 1.15862564368, 1.5
102745, 2.34654015502, 1.33557077718, 1.5
102746, 2.2414968832, 1.50522148622, 1.5
102747, 2.12421133269, 1.66665119748, 1.5
102748, 1.99532407649, 1.81897823784, 1.5
102749, 1.85553905211, 1.96137064984, 1.5
102750, 1.70561971688, 2.0930507355, 1.5
102751, 1.54638487821, 2.21329930385, 1.5
102752, 1.37870422159, 2.32145959891, 1.5
102753, 1.20349356059, 2.41694088665, 1.5
102754, 1.02170983511, 2.49922168141, 1.5
102755, 0.834345884811, 2.56785259399, 1.5
102756, 0.642425026614, 2.62245878617, 1.5
102757, 0.446995465696, 2.66274201785, 1.5
102758, 0.249124570551, 2.68848227599, 1.5
102759, 0.0498930433896, 2.69953897623, 1.5
102760, -0.149610982273, 2.69585173071, 1.5
102761, -0.348297884631, 2.67744067787, 1.5
102762, -0.545082504723, 2.64440637252, 1.5
102763, -0.738890073193, 2.59692923656, 1.5
102764, -0.92866208031, 2.53526857366, 1.5
102765, -1.11336205718, 2.45976115296, 1.5
102766, -1.29198123657, 2.37081936982, 1.5
102767, -1.46354406247, 2.26892899342, 1.5
102768, -1.62711351822, 2.15464651365, 1.5
102769, -1.78179624417, 2.0285961018, 1.5
102770, -1.92674741691, 1.8914662015, 1.5
102771, -2.0611753634, 1.74400576871, 1.5
102772, -2.18434588481, 1.58702018119, 1.5
102773, -2.29558626647, 1.42136683977, 1.5
102774, -2.39428895198, 1.24795048556, 1.5
102775, -2.47991486151, 1.06771825855, 1.5
102776, -2.55199633603, 0.881654524667, 1.5
102777, -2.61013969152, 0.690775499504, 1.5
102778, -2.65402736914, 0.496123698104, 1.5
102779, -2.68341966961, 0.298762241107, 1.5
102780, -2.69815606238, 0.0997690483505, 1.5
102781, -2.69815606238, -0.0997690483505, 1.5
102782, -2.68341966961, -0.298762241107, 1.5
102783, -2.65402736914, -0.496123698104, 1.5
102784, -2.61013969152, -0.690775499504, 1.5
102785, -2.55199633603, -0.881654524667, 1.5
102786, -2.47991486151, -1.06771825855, 1.5
102787, -2.39428895198, -1.24795048556, 1.5
102788, -2.29558626647, -1.42136683977, 1.5
102789, -2.18434588481, -1.58702018119, 1.5
102790, -2.0611753634, -1.74400576871, 1.5
102791, -1.92674741691, -1.8914662015, 1.5
102792, -1.78179624417, -2.0285961018, 1.5
102793, -1.62711351822, -2.15464651365, 1.5
102794, -1.46354406247, -2.26892899342, 1.5
102795, -1.29198123657, -2.37081936982, 1.5
102796, -1.11336205718, -2.45976115296, 1.5
102797, -0.92866208031, -2.53526857366, 1.5
102798, -0.738890073193, -2.59692923656, 1.5
102799, -0.545082504723, -2.64440637252, 1.5
102800, -0.348297884631, -2.67744067787, 1.5
102801, -0.149610982273, -2.69585173071, 1.5
102802, 0.0498930433896, -2.69953897623, 1.5
102803, 0.249124570551, -2.68848227599, 1.5
102804, 0.446995465696, -2.66274201785, 1.5
102805, 0.642425026614, -2.62245878617, 1.5
102806, 0.834345884811, -2.56785259399, 1.5
102807, 1.02170983511, -2.49922168141, 1.5
102808, 1.20349356059, -2.41694088665, 1.5
102809, 1.37870422159, -2.32145959891, 1.5
102810, 1.54638487821, -2.21329930385, 1.5
102811, 1.70561971688, -2.0930507355, 1.5
102812, 1.85553905211, -1.96137064984, 1.5
102813, 1.99532407649, -1.81897823784, 1.5
102814, 2.12421133269, -1.66665119748, 1.5
102815, 2.2414968832, -1.50522148622, 1.5
102816, 2.34654015502, -1.33557077718, 1.5
102817, 2.43876743823, -1.15862564368, 1.5
102818, 2.51767501939, -0.975352498704, 1.5
102819, 2.58283193265, -0.7867523166, 1.5
102820, 2.63388231354, -0.593855166166, 1.5
102821, 2.6705473426, -0.397714584747, 1.5
102822, 2.69262676814, -0.199401824182, 1.5
102823, 2.7, -6.61309271538e-16, 1.5
102824, 2.7, 0, 1.7
102825, 2.69262676814, 0.199401824182, 1.7
102826, 2.6705473426, 0.397714584747, 1.7
102827, 2.63388231354, 0.593855166166, 1.7
102828, 2.58283193265, 0.7867523166, 1.7
102829, 2.51767501939, 0.975352498704, 1.7
102830, 2.43876743823, 1.15862564368, 1.7
102831, 2.34654015502, 1.33557077718, 1.7
102832, 2.2414968832, 1.50522148622, 1.7
102833, 2.12421133269, 1.66665119748, 1.7
102834, 1.99532407649, 1.81897823784, 1.7
102835, 1.85553905211, 1.96137064984, 1.7
102836, 1.70561971688, 2.0930507355, 1.7
102837, 1.54638487821, 2.21329930385, 1.7
102838, 1.37870422159, 2.32145959891, 1.7
102839, 1.20349356059, 2.41694088665, 1.7
102840, 1.02170983511, 2.49922168141, 1.7
102841, 0.834345884811, 2.56785259399, 1.7
102842, 0.642425026614, 2.62245878617, 1.7
102843, 0.446995465696, 2.66274201785, 1.7
102844, 0.249124570551, 2.68848227599, 1.7
102845, 0.0498930433896, 2.69953897623, 1.7
102846, -0.149610982273, 2.69585173071, 1.7
102847, -0.348297884631, 2.67744067787, 1.7
102848, -0.545082504723, 2.64440637252, 1.7
102849, -0.738890073193, 2.59692923656, 1.7
102850, -0.92866208031, 2.53526857366, 1.7
102851, -1.11336205718, 2.45976115296, 1.7
102852, -1.29198123657, 2.37081936982, 1.7
102853, -1.46354406247, 2.26892899342, 1.7
102854, -1.62711351822, 2.15464651365, 1.7
102855, -1.78179624417, 2.0285961018, 1.7
102856, -1.92674741691, 1.8914662015, 1.7
102857, -2.0611753634, 1.74400576871, 1.7
102858, -2.18434588481, 1.58702018119, 1.7
102859, -2.29558626647, 1.42136683977, 1.7
102860, -2.39428895198, 1.24795048556, 1.7
102861, -2.47991486151, 1.06771825855, 1.7
102862, -2.55199633603, 0.881654524667, 1.7
102863, -2.61013969152, 0.690775499504, 1.7
102864, -2.65402736914, 0.496123698104, 1.7
102865, -2.68341966961, 0.298762241107, 1.7
102866, -2.69815606238, 0.0997690483505, 1.7
102867, -2.69815606238, -0.0997690483505, 1.7
102868, -2.68341966961, -0.298762241107, 1.7
102869, -2.65402736914, -0.496123698104, 1.7
102870, -2.61013969152, -0.690775499504, 1.7
102871, -2.55199633603, -0.881654524667, 1.7
102872, -2.47991486151, -1.06771825855, 1.7
102873, -2.39428895198, -1.24795048556, 1.7
102874, -2.29558626647, -1.42136683977, 1.7
102875, -2.18434588481, -1.58702018119, 1.7
102876, -2.0611753634, -1.74400576871, 1.7
102877, -1.92674741691, -1.8914662015, 1.7
102878, -1.78179624417, -2.0285961018, 1.7
102879, -1.62711351822, -2.15464651365, 1.7
102880, -1.46354406247, -2.26892899342, 1.7
102881, -1.29198123657, -2.37081936982, 1.7
102882, -1.11336205718, -2.45976115296, 1.7
102883, -0.92866208031, -2.53526857366, 1.7
102884, -0.738890073193, -2.59692923656, 1.7
102885, -0.545082504723, -2.64440637252, 1.7
102886, -0.348297884631, -2.67744067787, 1.7
102887, -0.149610982273, -2.69585173071, 1.7
102888, 0.0498930433896, -2.69953897623, 1.7
102889, 0.249124570551, -2.68848227599, 1.7
102890, 0.446995465696, -2.66274201785, 1.7
102891, 0.642425026614, -2.62245878617, 1.7
102892, 0.834345884811, -2.56785259399, 1.7
102893, 1.02170983511, -2.49922168141, 1.7
102894, 1.20349356059, -2.41694088665, 1.7
102895, 1.37870422159, -2.32145959891, 1.7
102896, 1.54638487821, -2.21329930385, 1.7
102897, 1.70561971688, -2.0930507355, 1.7
102898, 1.85553905211, -1.96137064984, 1.7
102899, 1.99532407649, -1.81897823784, 1.7
102900, 2.12421133269, -1.66665119748, 1.7
102901, 2.2414968832, -1.50522148622, 1.7
102902, 2.34654015502, -1.33557077718, 1.7
102903, 2.43876743823, -1.15862564368, 1.7
102904, 2.51767501939, -0.975352498704, 1.7
102905, 2.58283193265, -0.7867523166, 1.7
102906, 2.63388231354, -0.593855166166, 1.7
102907, 2.6705473426, -0.397714584747, 1.7
102908, 2.69262676814, -0.199401824182, 1.7
102909, 2.7, -6.61309271538e-16, 1.7
102910, 2.7, 0, 1.9
102911, 2.69262676814, 0.199401824182, 1.9
102912, 2.6705473426, 0.397714584747, 1.9
102913, 2.63388231354, 0.593855166166, 1.9
102914, 2.58283193265, 0.7867523166, 1.9
102915, 2.51767501939, 0.975352498704, 1.9
102916, 2.43876743823, 1.15862564368, 1.9
102917, 2.34654015502, 1.33557077718, 1.9
102918, 2.2414968832, 1.50522148622, 1.9
102919, 2.12421133269, 1.66665119748, 1.9
102920, 1.99532407649, 1.81897823784, 1.9
102921, 1.85553905211, 1.96137064984, 1.9
102922, 1.70561971688, 2.0930507355, 1.9
102923, 1.54638487821, 2.21329930385, 1.9
102924, 1.37870422159, 2.32145959891, 1.9
102925, 1.20349356059, 2.41694088665, 1.9
102926, 1.02170983511, 2.49922168141, 1.9
102927, 0.834345884811, 2.56785259399, 1.9
102928, 0.642425026614, 2.62245878617, 1.9
102929, 0.446995465696, 2.66274201785, 1.9
102930, 0.249124570551, 2.68848227599, 1.9
102931, 0.0498930433896, 2.69953897623, 1.9
102932, -0.149610982273, 2.69585173071, 1.9
102933, -0.348297884631, 2.67744067787, 1.9
102934, -0.545082504723, 2.64440637252, 1.9
102935, -0.738890073193, 2.59692923656, 1.9
102936, -0.92866208031, 2.53526857366, 1.9
102937, -1.11336205718, 2.45976115296, 1.9
102938, -1.29198123657, 2.37081936982, 1.9
102939, -1.46354406247, 2.26892899342, 1.9
102940, -1.62711351822, 2.15464651365, 1.9
102941, -1.78179624417, 2.0285961018, 1.9
102942, -1.92674741691, 1.8914662015, 1.9
102943, -2.0611753634, 1.74400576871, 1.9
102944, -2.18434588481, 1.58702018119, 1.9
102945, -2.29558626647, 1.42136683977, 1.9
102946, -2.39428895198, 1.24795048556, 1.9
102947, -2.47991486151, 1.06771825855, 1.9
102948, -2.55199633603, 0.881654524667, 1.9
102949, -2.61013969152, 0.690775499504, 1.9
102950, -2.65402736914, 0.496123698104, 1.9
102951, -2.68341966961, 0.298762241107, 1.9
102952, -2.69815606238, 0.0997690483505, 1.9
102953, -2.69815606238, -0.0997690483505, 1.9
102954, -2.68341966961, -0.298762241107, 1.9
102955, -2.65402736914, -0.496123698104, 1.9
102956, -2.61013969152, -0.690775499504, 1.9
102957, -2.55199633603, -0.881654524667, 1.9
102958, -2.47991486151, -1.06771825855, 1.9
102959, -2.39428895198, -1.24795048556, 1.9
102960, -2.29558626647, -1.42136683977, 1.9
102961, -2.18434588481, -1.58702018119, 1.9
102962, -2.0611753634, -1.74400576871, 1.9
102963, -1.92674741691, -1.8914662015, 1.9
102964, -1.78179624417, -2.0285961018, 1.9
102965, -1.62711351822, -2.15464651365, 1.9
102966, -1.46354406247, -2.26892899342, 1.9
102967, -1.29198123657, -2.37081936982, 1.9
102968, -1.11336205718, -2.45976115296, 1.9
102969, -0.92866208031, -2.53526857366, 1.9
102970, -0.738890073193, -2.59692923656, 1.9
102971, -0.545082504723, -2.64440637252, 1.9
102972, -0.348297884631, -2.67744067787, 1.9
102973, -0.149610982273, -2.69585173071, 1.9
102974, 0.0498930433896, -2.69953897623, 1.9
102975, 0.249124570551, -2.68848227599, 1.9
102976, 0.446995465696, -2.66274201785, 1.9
102977, 0.642425026614, -2.62245878617, 1.9
102978, 0.834345884811, -2.56785259399, 1.9
102979, 1.02170983511, -2.49922168141, 1.9
102980, 1.20349356059, -2.41694088665, 1.9
102981, 1.37870422159, -2.32145959891, 1.9
102982, 1.54638487821, -2.21329930385, 1.9
102983, 1.70561971688, -2.0930507355, 1.9
102984, 1.85553905211, -1.96137064984, 1.9
102985, 1.99532407649, -1.81897823784, 1.9
102986, 2.12421133269, -1.66665119748, 1.9
102987, 2.2414968832, -1.50522148622, 1.9
102988, 2.34654015502, -1.33557077718, 1.9
102989, 2.43876743823, -1.15862564368, 1.9
102990, 2.51767501939, -0.975352498704, 1.9
102991, 2.58283193265, -0.7867523166, 1.9
102992, 2.63388231354, -0.593855166166, 1.9
102993, 2.6705473426, -0.397714584747, 1.9
102994, 2.69262676814, -0.199401824182, 1.9
102995, 2.7, -6.61309271538e-16, 1.9
102996, 2.7, 0, 2.1
102997, 2.69262676814, 0.199401824182, 2.1
102998, 2.6705473426, 0.397714584747, 2.1
102999, 2.63388231354, 0.593855166166, 2.1
103000, 2.58283193265, 0.7867523166, 2.1
103001, 2.51767501939, 0.975352498704, 2.1
103002, 2.43876743823, 1.15862564368, 2.1
103003, 2.34654015502, 1.33557077718, 2.1
103004, 2.2414968832, 1.50522148622, 2.1
103005, 2.12421133269, 1.66665119748, 2.1
103006, 1.99532407649, 1.81897823784, 2.1
103007, 1.85553905211, 1.96137064984, 2.1
103008, 1.70561971688, 2.0930507355, 2.1
103009, 1.54638487821, 2.21329930385, 2.1
103010, 1.37870422159, 2.32145959891, 2.1
103011, 1.20349356059, 2.41694088665, 2.1
103012, 1.02170983511, 2.49922168141, 2.1
103013, 0.834345884811, 2.56785259399, 2.1
103014, 0.642425026614, 2.62245878617, 2.1
103015, 0.446995465696, 2.66274201785, 2.1
103016, 0.249124570551, 2.68848227599, 2.1
103017, 0.0498930433896, 2.69953897623, 2.1
103018, -0.149610982273, 2.69585173071, 2.1
103019, -0.348297884631, 2.67744067787, 2.1
103020, -0.545082504723, 2.64440637252, 2.1
103021, -0.738890073193, 2.59692923656, 2.1
103022, -0.92866208031, 2.53526857366, 2.1
103023, -1.11336205718, 2.45976115296, 2.1
103024, -1.29198123657, 2.37081936982, 2.1
103025, -1.46354406247, 2.26892899342, 2.1
103026, -1.62711351822, 2.15464651365, 2.1
103027, -1.78179624417, 2.0285961018, 2.1
103028, -1.92674741691, 1.8914662015, 2.1
103029, -2.0611753634, 1.74400576871, 2.1
103030, -2.18434588481, 1.58702018119, 2.1
103031, -2.29558626647, 1.42136683977, 2.1
103032, -2.39428895198, 1.24795048556, 2.1
103033, -2.47991486151, 1.06771825855, 2.1
103034, -2.55199633603, 0.881654524667, 2.1
103035, -2.61013969152, 0.690775499504, 2.1
103036, -2.65402736914, 0.496123698104, 2.1
103037, -2.68341966961, 0.298762241107, 2.1
103038, -2.69815606238, 0.0997690483505, 2.1
103039, -2.69815606238, -0.0997690483505, 2.1
103040, -2.68341966961, -0.298762241107, 2.1
103041, -2.65402736914, -0.496123698104, 2.1
103042, -2.61013969152, -0.690775499504, 2.1
103043, -2.55199633603, -0.881654524667, 2.1
103044, -2.47991486151, -1.06771825855, 2.1
103045, -2.39428895198, -1.24795048556, 2.1
103046, -2.29558626647, -1.42136683977, 2.1
103047, -2.18434588481, -1.58702018119, 2.1
103048, -2.0611753634, -1.74400576871, 2.1
103049, -1.92674741691, -1.8914662015, 2.1
103050, -1.78179624417, -2.0285961018, 2.1
103051, -1.62711351822, -2.15464651365, 2.1
103052, -1.46354406247, -2.26892899342, 2.1
103053, -1.29198123657, -2.37081936982, 2.1
103054, -1.11336205718, -2.45976115296, 2.1
103055, -0.92866208031, -2.53526857366, 2.1
103056, -0.738890073193, -2.59692923656, 2.1
103057, -0.545082504723, -2.64440637252, 2.1
103058, -0.348297884631, -2.67744067787, 2.1
103059, -0.149610982273, -2.69585173071, 2.1
103060, 0.0498930433896, -2.69953897623, 2.1
103061, 0.249124570551, -2.68848227599, 2.1
103062, 0.446995465696, -2.66274201785, 2.1
103063, 0.642425026614, -2.62245878617, 2.1
103064, 0.834345884811, -2.56785259399, 2.1
103065, 1.02170983511, -2.49922168141, 2.1
103066, 1.20349356059, -2.41694088665, 2.1
103067, 1.37870422159, -2.32145959891, 2.1
103068, 1.54638487821, -2.21329930385, 2.1
103069, 1.70561971688, -2.0930507355, 2.1
103070, 1.85553905211, -1.96137064984, 2.1
103071, 1.99532407649, -1.81897823784, 2.1
103072, 2.12421133269, -1.66665119748, 2.1
103073, 2.2414968832, -1.50522148622, 2.1
103074, 2.34654015502, -1.33557077718, 2.1
103075, 2.43876743823, -1.15862564368, 2.1
103076, 2.51767501939, -0.975352498704, 2.1
103077, 2.58283193265, -0.7867523166, 2.1
103078, 2.63388231354, -0.593855166166, 2.1
103079, 2.6705473426, -0.397714584747, 2.1
103080, 2.69262676814, -0.199401824182, 2.1
103081, 2.7, -6.61309271538e-16, 2.1
103082, 2.7, 0, 2.3
103083, 2.69262676814, 0.199401824182, 2.3
103084, 2.6705473426, 0.397714584747, 2.3
103085, 2.63388231354, 0.593855166166, 2.3
103086, 2.58283193265, 0.7867523166, 2.3
103087, 2.51767501939, 0.975352498704, 2.3
103088, 2.43876743823, 1.15862564368, 2.3
103089, 2.34654015502, 1.33557077718, 2.3
103090, 2.2414968832, 1.50522148622, 2.3
103091, 2.12421133269, 1.66665119748, 2.3
103092, 1.99532407649, 1.81897823784, 2.3
103093, 1.85553905211, 1.96137064984, 2.3
103094, 1.70561971688, 2.0930507355, 2.3
103095, 1.54638487821, 2.21329930385, 2.3
103096, 1.37870422159, 2.32145959891, 2.3
103097, 1.20349356059, 2.41694088665, 2.3
103098, 1.02170983511, 2.49922168141, 2.3
103099, 0.834345884811, 2.56785259399, 2.3
103100, 0.642425026614, 2.62245878617, 2.3
103101, 0.446995465696, 2.66274201785, 2.3
103102, 0.249124570551, 2.68848227599, 2.3
103103, 0.0498930433896, 2.69953897623, 2.3
103104, -0.149610982273, 2.69585173071, 2.3
103105, -0.348297884631, 2.67744067787, 2.3
103106, -0.545082504723, 2.64440637252, 2.3
103107, -0.738890073193, 2.59692923656, 2.3
103108, -0.92866208031, 2.53526857366, 2.3
103109, -1.11336205718, 2.45976115296, 2.3
103110, -1.29198123657, 2.37081936982, 2.3
103111, -1.46354406247, 2.26892899342, 2.3
103112, -1.62711351822, 2.15464651365, 2.3
103113, -1.78179624417, 2.0285961018, 2.3
103114, -1.92674741691, 1.8914662015, 2.3
103115, -2.0611753634, 1.74400576871, 2.3
103116, -2.18434588481, 1.58702018119, 2.3
103117, -2.29558626647, 1.42136683977, 2.3
103118, -2.39428895198, 1.24795048556, 2.3
103119, -2.47991486151, 1.06771825855, 2.3
103120, -2.55199633603, 0.881654524667, 2.3
103121, -2.61013969152, 0.690775499504, 2.3
103122, -2.65402736914, 0.496123698104, 2.3
103123, -2.68341966961, 0.298762241107, 2.3
103124, -2.69815606238, 0.0997690483505, 2.3
103125, -2.69815606238, -0.0997690483505, 2.3
103126, -2.68341966961, -0.298762241107, 2.3
103127, -2.65402736914, -0.496123698104, 2.3
103128, -2.61013969152, -0.690775499504, 2.3
103129, -2.55199633603, -0.881654524667, 2.3
103130, -2.47991486151, -1.06771825855, 2.3
103131, -2.39428895198, -1.24795048556, 2.3
103132, -2.29558626647, -1.42136683977, 2.3
103133, -2.18434588481, -1.58702018119, 2.3
103134, -2.0611753634, -1.74400576871, 2.3
103135, -1.92674741691, -1.8914662015, 2.3
103136, -1.78179624417, -2.0285961018, 2.3
103137, -1.62711351822, -2.15464651365, 2.3
103138, -1.46354406247, -2.26892899342, 2.3
103139, -1.29198123657, -2.37081936982, 2.3
103140, -1.11336205718, -2.45976115296, 2.3
103141, -0.92866208031, -2.53526857366, 2.3
103142, -0.738890073193, -2.59692923656, 2.3
103143, -0.545082504723, -2.64440637252, 2.3
103144, -0.348297884631, -2.67744067787, 2.3
103145, -0.149610982273, -2.69585173071, 2.3
103146, 0.0498930433896, -2.69953897623, 2.3
103147, 0.249124570551, -2.68848227599, 2.3
103148, 0.446995465696, -2.66274201785, 2.3
103149, 0.642425026614, -2.62245878617, 2.3
103150, 0.834345884811, -2.56785259399, 2.3
103151, 1.02170983511, -2.49922168141, 2.3
103152, 1.20349356059, -2.41694088665, 2.3
103153, 1.37870422159, -2.32145959891, 2.3
103154, 1.54638487821, -2.21329930385, 2.3
103155, 1.70561971688, -2.0930507355, 2.3
103156, 1.85553905211, -1.96137064984, 2.3
103157, 1.99532407649, -1.81897823784, 2.3
103158, 2.12421133269, -1.66665119748, 2.3
103159, 2.2414968832, -1.50522148622, 2.3
103160, 2.34654015502, -1.33557077718, 2.3
103161, 2.43876743823, -1.15862564368, 2.3
103162, 2.51767501939, -0.975352498704, 2.3
103163, 2.58283193265, -0.7867523166, 2.3
103164, 2.63388231354, -0.593855166166, 2.3
103165, 2.6705473426, -0.397714584747, 2.3
103166, 2.69262676814, -0.199401824182, 2.3
103167, 2.7, -6.61309271538e-16, 2.3
103168, 2.7, 0, 2.5
103169, 2.69262676814, 0.199401824182, 2.5
103170, 2.6705473426, 0.397714584747, 2.5
103171, 2.63388231354, 0.593855166166, 2.5
103172, 2.58283193265, 0.7867523166, 2.5
103173, 2.51767501939, 0.975352498704, 2.5
103174, 2.43876743823, 1.15862564368, 2.5
103175, 2.34654015502, 1.33557077718, 2.5
103176, 2.2414968832, 1.50522148622, 2.5
103177, 2.12421133269, 1.66665119748, 2.5
103178, 1.99532407649, 1.81897823784, 2.5
103179, 1.85553905211, 1.96137064984, 2.5
103180, 1.70561971688, 2.0930507355, 2.5
103181, 1.54638487821, 2.21329930385, 2.5
103182, 1.37870422159, 2.32145959891, 2.5
103183, 1.20349356059, 2.41694088665, 2.5
103184, 1.02170983511, 2.49922168141, 2.5
103185, 0.834345884811, 2.56785259399, 2.5
103186, 0.642425026614, 2.62245878617, 2.5
103187, 0.446995465696, 2.66274201785, 2.5
103188, 0.249124570551, 2.68848227599, 2.5
103189, 0.0498930433896, 2.69953897623, 2.5
103190, -0.149610982273, 2.69585173071, 2.5
103191, -0.348297884631, 2.67744067787, 2.5
103192, -0.545082504723, 2.64440637252, 2.5
103193, -0.738890073193, 2.59692923656, 2.5
103194, -0.92866208031, 2.53526857366, 2.5
103195, -1.11336205718, 2.45976115296, 2.5
103196, -1.29198123657, 2.37081936982, 2.5
103197, -1.46354406247, 2.26892899342, 2.5
103198, -1.62711351822, 2.15464651365, 2.5
103199, -1.78179624417, 2.0285961018, 2.5
103200, -1.92674741691, 1.8914662015, 2.5
103201, -2.0611753634, 1.74400576871, 2.5
103202, -2.18434588481, 1.58702018119, 2.5
103203, -2.29558626647, 1.42136683977, 2.5
103204, -2.39428895198, 1.24795048556, 2.5
103205, -2.47991486151, 1.06771825855, 2.5
103206, -2.55199633603, 0.881654524667, 2.5
103207, -2.61013969152, 0.690775499504, 2.5
103208, -2.65402736914, 0.496123698104, 2.5
103209, -2.68341966961, 0.298762241107, 2.5
103210, -2.69815606238, 0.0997690483505, 2.5
103211, -2.69815606238, -0.0997690483505, 2.5
103212, -2.68341966961, -0.298762241107, 2.5
103213, -2.65402736914, -0.496123698104, 2.5
103214, -2.61013969152, -0.690775499504, 2.5
103215, -2.55199633603, -0.881654524667, 2.5
103216, -2.47991486151, -1.06771825855, 2.5
103217, -2.39428895198, -1.24795048556, 2.5
103218, -2.29558626647, -1.42136683977, 2.5
103219, -2.18434588481, -1.58702018119, 2.5
103220, -2.0611753634, -1.74400576871, 2.5
103221, -1.92674741691, -1.8914662015, 2.5
103222, -1.78179624417, -2.0285961018, 2.5
103223, -1.62711351822, -2.15464651365, 2.5
103224, -1.46354406247, -2.26892899342, 2.5
103225, -1.29198123657, -2.37081936982, 2.5
103226, -1.11336205718, -2.45976115296, 2.5
103227, -0.92866208031, -2.53526857366, 2.5
103228, -0.738890073193, -2.59692923656, 2.5
103229, -0.545082504723, -2.64440637252, 2.5
103230, -0.348297884631, -2.67744067787, 2.5
103231, -0.149610982273, -2.69585173071, 2.5
103232, 0.0498930433896, -2.69953897623, 2.5
103233, 0.249124570551, -2.68848227599, 2.5
103234, 0.446995465696, -2.66274201785, 2.5
103235, 0.642425026614, -2.62245878617, 2.5
103236, 0.834345884811, -2.56785259399, 2.5
103237, 1.02170983511, -2.49922168141, 2.5
103238, 1.20349356059, -2.41694088665, 2.5
103239, 1.37870422159, -2.32145959891, 2.5
103240, 1.54638487821, -2.21329930385, 2.5
103241, 1.70561971688, -2.0930507355, 2.5
103242, 1.85553905211, -1.96137064984, 2.5
103243, 1.99532407649, -1.81897823784, 2.5
103244, 2.12421133269, -1.66665119748, 2.5
103245, 2.2414968832, -1.50522148622, 2.5
103246, 2.34654015502, -1.33557077718, 2.5
103247, 2.43876743823, -1.15862564368, 2.5
103248, 2.51767501939, -0.975352498704, 2.5
103249, 2.58283193265, -0.7867523166, 2.5
103250, 2.63388231354, -0.593855166166, 2.5
103251, 2.6705473426, -0.397714584747, 2.5
103252, 2.69262676814, -0.199401824182, 2.5
103253, 2.7, -6.61309271538e-16, 2.5
103254, 2.7, 0, 2.7
103255, 2.69262676814, 0.199401824182, 2.7
103256, 2.6705473426, 0.397714584747, 2.7
103257, 2.63388231354, 0.593855166166, 2.7
103258, 2.58283193265, 0.7867523166, 2.7
103259, 2.51767501939, 0.975352498704, 2.7
103260, 2.43876743823, 1.15862564368, 2.7
103261, 2.34654015502, 1.33557077718, 2.7
103262, 2.2414968832, 1.50522148622, 2.7
103263, 2.12421133269, 1.66665119748, 2.7
103264, 1.99532407649, 1.81897823784, 2.7
103265, 1.85553905211, 1.96137064984, 2.7
103266, 1.70561971688, 2.0930507355, 2.7
103267, 1.54638487821, 2.21329930385, 2.7
103268, 1.37870422159, 2.32145959891, 2.7
103269, 1.20349356059, 2.41694088665, 2.7
103270, 1.02170983511, 2.49922168141, 2.7
103271, 0.834345884811, 2.56785259399, 2.7
103272, 0.642425026614, 2.62245878617, 2.7
103273, 0.446995465696, 2.66274201785, 2.7
103274, 0.249124570551, 2.68848227599, 2.7
103275, 0.0498930433896, 2.69953897623, 2.7
103276, -0.149610982273, 2.69585173071, 2.7
103277, -0.348297884631, 2.67744067787, 2.7
103278, -0.545082504723, 2.64440637252, 2.7
103279, -0.738890073193, 2.59692923656, 2.7
103280, -0.92866208031, 2.53526857366, 2.7
103281, -1.11336205718, 2.45976115296, 2.7
103282, -1.29198123657, 2.37081936982, 2.7
103283, -1.46354406247, 2.26892899342, 2.7
103284, -1.62711351822, 2.15464651365, 2.7
103285, -1.78179624417, 2.0285961018, 2.7
103286, -1.92674741691, 1.8914662015, 2.7
103287, -2.0611753634, 1.74400576871, 2.7
103288, -2.18434588481, 1.58702018119, 2.7
103289, -2.29558626647, 1.42136683977, 2.7
103290, -2.39428895198, 1.24795048556, 2.7
103291, -2.47991486151, 1.06771825855, 2.7
103292, -2.55199633603, 0.881654524667, 2.7
103293, -2.61013969152, 0.690775499504, 2.7
103294, -2.65402736914, 0.496123698104, 2.7
103295, -2.68341966961, 0.298762241107, 2.7
103296, -2.69815606238, 0.0997690483505, 2.7
103297, -2.69815606238, -0.0997690483505, 2.7
103298, -2.68341966961, -0.298762241107, 2.7
103299, -2.65402736914, -0.496123698104, 2.7
103300, -2.61013969152, -0.690775499504, 2.7
103301, -2.55199633603, -0.881654524667, 2.7
103302, -2.47991486151, -1.06771825855, 2.7
103303, -2.39428895198, -1.24795048556, 2.7
103304, -2.29558626647, -1.42136683977, 2.7
103305, -2.18434588481, -1.58702018119, 2.7
103306, -2.0611753634, -1.74400576871, 2.7
103307, -1.92674741691, -1.8914662015, 2.7
103308, -1.78179624417, -2.0285961018, 2.7
103309, -1.62711351822, -2.15464651365, 2.7
103310, -1.46354406247, -2.26892899342, 2.7
103311, -1.29198123657, -2.37081936982, 2.7
103312, -1.11336205718, -2.45976115296, 2.7
103313, -0.92866208031, -2.53526857366, 2.7
103314, -0.738890073193, -2.59692923656, 2.7
103315, -0.545082504723, -2.64440637252, 2.7
103316, -0.348297884631, -2.67744067787, 2.7
103317, -0.149610982273, -2.69585173071, 2.7
103318, 0.0498930433896, -2.69953897623, 2.7
103319, 0.249124570551, -2.68848227599, 2.7
103320, 0.446995465696, -2.66274201785, 2.7
103321, 0.642425026614, -2.62245878617, 2.7
103322, 0.834345884811, -2.56785259399, 2.7
103323, 1.02170983511, -2.49922168141, 2.7
103324, 1.20349356059, -2.41694088665, 2.7
103325, 1.37870422159, -2.32145959891, 2.7
103326, 1.54638487821, -2.21329930385, 2.7
103327, 1.70561971688, -2.0930507355, 2.7
103328, 1.85553905211, -1.96137064984, 2.7
103329, 1.99532407649, -1.81897823784, 2.7
103330, 2.12421133269, -1.66665119748, 2.7
103331, 2.2414968832, -1.50522148622, 2.7
103332, 2.34654015502, -1.33557077718, 2.7
103333, 2.43876743823, -1.15862564368, 2.7
103334, 2.51767501939, -0.975352498704, 2.7
103335, 2.58283193265, -0.7867523166, 2.7
103336, 2.63388231354, -0.593855166166, 2.7
103337, 2.6705473426, -0.397714584747, 2.7
103338, 2.69262676814, -0.199401824182, 2.7
103339, 2.7, -6.61309271538e-16, 2.7
103340, 2.7, 0, 2.9
103341, 2.69262676814, 0.199401824182, 2.9
103342, 2.6705473426, 0.397714584747, 2.9
103343, 2.63388231354, 0.593855166166, 2.9
103344, 2.58283193265, 0.7867523166, 2.9
103345, 2.51767501939, 0.975352498704, 2.9
103346, 2.43876743823, 1.15862564368, 2.9
103347, 2.34654015502, 1.33557077718, 2.9
103348, 2.2414968832, 1.50522148622, 2.9
103349, 2.12421133269, 1.66665119748, 2.9
103350, 1.99532407649, 1.81897823784, 2.9
103351, 1.85553905211, 1.96137064984, 2.9
103352, 1.70561971688, 2.0930507355, 2.9
103353, 1.54638487821, 2.21329930385, 2.9
103354, 1.37870422159, 2.32145959891, 2.9
103355, 1.20349356059, 2.41694088665, 2.9
103356, 1.02170983511, 2.49922168141, 2.9
103357, 0.834345884811, 2.56785259399, 2.9
103358, 0.642425026614, 2.62245878617, 2.9
103359, 0.446995465696, 2.66274201785, 2.9
103360, 0.249124570551, 2.68848227599, 2.9
103361, 0.0498930433896, 2.69953897623, 2.9
103362, -0.149610982273, 2.69585173071, 2.9
103363, -0.348297884631, 2.67744067787, 2.9
103364, -0.545082504723, 2.64440637252, 2.9
103365, -0.738890073193, 2.59692923656, 2.9
103366, -0.92866208031, 2.53526857366, 2.9
103367, -1.11336205718, 2.45976115296, 2.9
103368, -1.29198123657, 2.37081936982, 2.9
103369, -1.46354406247, 2.26892899342, 2.9
103370, -1.62711351822, 2.15464651365, 2.9
103371, -1.78179624417, 2.0285961018, 2.9
103372, -1.92674741691, 1.8914662015, 2.9
103373, -2.0611753634, 1.74400576871, 2.9
103374, -2.18434588481, 1.58702018119, 2.9
103375, -2.29558626647, 1.42136683977, 2.9
103376, -2.39428895198, 1.24795048556, 2.9
103377, -2.47991486151, 1.06771825855, 2.9
103378, -2.55199633603, 0.881654524667, 2.9
103379, -2.61013969152, 0.690775499504, 2.9
103380, -2.65402736914, 0.496123698104, 2.9
103381, -2.68341966961, 0.298762241107, 2.9
103382, -2.69815606238, 0.0997690483505, 2.9
103383, -2.69815606238, -0.0997690483505, 2.9
103384, -2.68341966961, -0.298762241107, 2.9
103385, -2.65402736914, -0.496123698104, 2.9
103386, -2.61013969152, -0.690775499504, 2.9
103387, -2.55199633603, -0.881654524667, 2.9
103388, -2.47991486151, -1.06771825855, 2.9
103389, -2.39428895198, -1.24795048556, 2.9
103390, -2.29558626647, -1.42136683977, 2.9
103391, -2.18434588481, -1.58702018119, 2.9
103392, -2.0611753634, -1.74400576871, 2.9
103393, -1.92674741691, -1.8914662015, 2.9
103394, -1.78179624417, -2.0285961018, 2.9
103395, -1.62711351822, -2.15464651365, 2.9
103396, -1.46354406247, -2.26892899342, 2.9
103397, -1.29198123657, -2.37081936982, 2.9
103398, -1.11336205718, -2.45976115296, 2.9
103399, -0.92866208031, -2.53526857366, 2.9
103400, -0.738890073193, -2.59692923656, 2.9
103401, -0.545082504723, -2.64440637252, 2.9
103402, -0.348297884631, -2.67744067787, 2.9
103403, -0.149610982273, -2.69585173071, 2.9
103404, 0.0498930433896, -2.69953897623, 2.9
103405, 0.249124570551, -2.68848227599, 2.9
103406, 0.446995465696, -2.66274201785, 2.9
103407, 0.642425026614, -2.62245878617, 2.9
103408, 0.834345884811, -2.56785259399, 2.9
103409, 1.02170983511, -2.49922168141, 2.9
103410, 1.20349356059, -2.41694088665, 2.9
103411, 1.37870422159, -2.32145959891, 2.9
103412, 1.54638487821, -2.21329930385, 2.9
103413, 1.70561971688, -2.0930507355, 2.9
103414, 1.85553905211, -1.96137064984, 2.9
103415, 1.99532407649, -1.81897823784, 2.9
103416, 2.12421133269, -1.66665119748, 2.9
103417, 2.2414968832, -1.50522148622, 2.9
103418, 2.34654015502, -1.33557077718, 2.9
103419, 2.43876743823, -1.15862564368, 2.9
103420, 2.51767501939, -0.975352498704, 2.9
103421, 2.58283193265, -0.7867523166, 2.9
103422, 2.63388231354, -0.593855166166, 2.9
103423, 2.6705473426, -0.397714584747, 2.9
103424, 2.69262676814, -0.199401824182, 2.9
103425, 2.7, -6.61309271538e-16, 2.9
103426, 2.7, 0, 3.1
103427, 2.69262676814, 0.199401824182, 3.1
103428, 2.6705473426, 0.397714584747, 3.1
103429, 2.63388231354, 0.593855166166, 3.1
103430, 2.58283193265, 0.7867523166, 3.1
103431, 2.51767501939, 0.975352498704, 3.1
103432, 2.43876743823, 1.15862564368, 3.1
103433, 2.34654015502, 1.33557077718, 3.1
103434, 2.2414968832, 1.50522148622, 3.1
103435, 2.12421133269, 1.66665119748, 3.1
103436, 1.99532407649, 1.81897823784, 3.1
103437, 1.85553905211, 1.96137064984, 3.1
103438, 1.70561971688, 2.0930507355, 3.1
103439, 1.54638487821, 2.21329930385, 3.1
103440, 1.37870422159, 2.32145959891, 3.1
103441, 1.20349356059, 2.41694088665, 3.1
103442, 1.02170983511, 2.49922168141, 3.1
103443, 0.834345884811, 2.56785259399, 3.1
103444, 0.642425026614, 2.62245878617, 3.1
103445, 0.446995465696, 2.66274201785, 3.1
103446, 0.249124570551, 2.68848227599, 3.1
103447, 0.0498930433896, 2.69953897623, 3.1
103448, -0.149610982273, 2.69585173071, 3.1
103449, -0.348297884631, 2.67744067787, 3.1
103450, -0.545082504723, 2.64440637252, 3.1
103451, -0.738890073193, 2.59692923656, 3.1
103452, -0.92866208031, 2.53526857366, 3.1
103453, -1.11336205718, 2.45976115296, 3.1
103454, -1.29198123657, 2.37081936982, 3.1
103455, -1.46354406247, 2.26892899342, 3.1
103456, -1.62711351822, 2.15464651365, 3.1
103457, -1.78179624417, 2.0285961018, 3.1
103458, -1.92674741691, 1.8914662015, 3.1
103459, -2.0611753634, 1.74400576871, 3.1
103460, -2.18434588481, 1.58702018119, 3.1
103461, -2.29558626647, 1.42136683977, 3.1
103462, -2.39428895198, 1.24795048556, 3.1
103463, -2.47991486151, 1.06771825855, 3.1
103464, -2.55199633603, 0.881654524667, 3.1
103465, -2.61013969152, 0.690775499504, 3.1
103466, -2.65402736914, 0.496123698104, 3.1
103467, -2.68341966961, 0.298762241107, 3.1
103468, -2.69815606238, 0.0997690483505, 3.1
103469, -2.69815606238, -0.0997690483505, 3.1
103470, -2.68341966961, -0.298762241107, 3.1
103471, -2.65402736914, -0.496123698104, 3.1
103472, -2.61013969152, -0.690775499504, 3.1
103473, -2.55199633603, -0.881654524667, 3.1
103474, -2.47991486151, -1.06771825855, 3.1
103475, -2.39428895198, -1.24795048556, 3.1
103476, -2.29558626647, -1.42136683977, 3.1
103477, -2.18434588481, -1.58702018119, 3.1
103478, -2.0611753634, -1.74400576871, 3.1
103479, -1.92674741691, -1.8914662015, 3.1
103480, -1.78179624417, -2.0285961018, 3.1
103481, -1.62711351822, -2.15464651365, 3.1
103482, -1.46354406247, -2.26892899342, 3.1
103483, -1.29198123657, -2.37081936982, 3.1
103484, -1.11336205718, -2.45976115296, 3.1
103485, -0.92866208031, -2.53526857366, 3.1
103486, -0.738890073193, -2.59692923656, 3.1
103487, -0.545082504723, -2.64440637252, 3.1
103488, -0.348297884631, -2.67744067787, 3.1
103489, -0.149610982273, -2.69585173071, 3.1
103490, 0.0498930433896, -2.69953897623, 3.1
103491, 0.249124570551, -2.68848227599, 3.1
103492, 0.446995465696, -2.66274201785, 3.1
103493, 0.642425026614, -2.62245878617, 3.1
103494, 0.834345884811, -2.56785259399, 3.1
103495, 1.02170983511, -2.49922168141, 3.1
103496, 1.20349356059, -2.41694088665, 3.1
103497, 1.37870422159, -2.32145959891, 3.1
103498, 1.54638487821, -2.21329930385, 3.1
103499, 1.70561971688, -2.0930507355, 3.1
103500, 1.85553905211, -1.96137064984, 3.1
103501, 1.99532407649, -1.81897823784, 3.1
103502, 2.12421133269, -1.66665119748, 3.1
103503, 2.2414968832, -1.50522148622, 3.1
103504, 2.34654015502, -1.33557077718, 3.1
103505, 2.43876743823, -1.15862564368, 3.1
103506, 2.51767501939, -0.975352498704, 3.1
103507, 2.58283193265, -0.7867523166, 3.1
103508, 2.63388231354, -0.593855166166, 3.1
103509, 2.6705473426, -0.397714584747, 3.1
103510, 2.69262676814, -0.199401824182, 3.1
103511, 2.7, -6.61309271538e-16, 3.1
103512, 2.7, 0, 3.3
103513, 2.69262676814, 0.199401824182, 3.3
103514, 2.6705473426, 0.397714584747, 3.3
103515, 2.63388231354, 0.593855166166, 3.3
103516, 2.58283193265, 0.7867523166, 3.3
103517, 2.51767501939, 0.975352498704, 3.3
103518, 2.43876743823, 1.15862564368, 3.3
103519, 2.34654015502, 1.33557077718, 3.3
103520, 2.2414968832, 1.50522148622, 3.3
103521, 2.12421133269, 1.66665119748, 3.3
103522, 1.99532407649, 1.81897823784, 3.3
103523, 1.85553905211, 1.96137064984, 3.3
103524, 1.70561971688, 2.0930507355, 3.3
103525, 1.54638487821, 2.21329930385, 3.3
103526, 1.37870422159, 2.32145959891, 3.3
103527, 1.20349356059, 2.41694088665, 3.3
103528, 1.02170983511, 2.49922168141, 3.3
103529, 0.834345884811, 2.56785259399, 3.3
103530, 0.642425026614, 2.62245878617, 3.3
103531, 0.446995465696, 2.66274201785, 3.3
103532, 0.249124570551, 2.68848227599, 3.3
103533, 0.0498930433896, 2.69953897623, 3.3
103534, -0.149610982273, 2.69585173071, 3.3
103535, -0.348297884631, 2.67744067787, 3.3
103536, -0.545082504723, 2.64440637252, 3.3
103537, -0.738890073193, 2.59692923656, 3.3
103538, -0.92866208031, 2.53526857366, 3.3
103539, -1.11336205718, 2.45976115296, 3.3
103540, -1.29198123657, 2.37081936982, 3.3
103541, -1.46354406247, 2.26892899342, 3.3
103542, -1.62711351822, 2.15464651365, 3.3
103543, -1.78179624417, 2.0285961018, 3.3
103544, -1.92674741691, 1.8914662015, 3.3
103545, -2.0611753634, 1.74400576871, 3.3
103546, -2.18434588481, 1.58702018119, 3.3
103547, -2.29558626647, 1.42136683977, 3.3
103548, -2.39428895198, 1.24795048556, 3.3
103549, -2.47991486151, 1.06771825855, 3.3
103550, -2.55199633603, 0.881654524667, 3.3
103551, -2.61013969152, 0.690775499504, 3.3
103552, -2.65402736914, 0.496123698104, 3.3
103553, -2.68341966961, 0.298762241107, 3.3
103554, -2.69815606238, 0.0997690483505, 3.3
103555, -2.69815606238, -0.0997690483505, 3.3
103556, -2.68341966961, -0.298762241107, 3.3
103557, -2.65402736914, -0.496123698104, 3.3
103558, -2.61013969152, -0.690775499504, 3.3
103559, -2.55199633603, -0.881654524667, 3.3
103560, -2.47991486151, -1.06771825855, 3.3
103561, -2.39428895198, -1.24795048556, 3.3
103562, -2.29558626647, -1.42136683977, 3.3
103563, -2.18434588481, -1.58702018119, 3.3
103564, -2.0611753634, -1.74400576871, 3.3
103565, -1.92674741691, -1.8914662015, 3.3
103566, -1.78179624417, -2.0285961018, 3.3
103567, -1.62711351822, -2.15464651365, 3.3
103568, -1.46354406247, -2.26892899342, 3.3
103569, -1.29198123657, -2.37081936982, 3.3
103570, -1.11336205718, -2.45976115296, 3.3
103571, -0.92866208031, -2.53526857366, 3.3
103572, -0.738890073193, -2.59692923656, 3.3
103573, -0.545082504723, -2.64440637252, 3.3
103574, -0.348297884631, -2.67744067787, 3.3
103575, -0.149610982273, -2.69585173071, 3.3
103576, 0.0498930433896, -2.69953897623, 3.3
103577, 0.249124570551, -2.68848227599, 3.3
103578, 0.446995465696, -2.66274201785, 3.3
103579, 0.642425026614, -2.62245878617, 3.3
103580, 0.834345884811, -2.56785259399, 3.3
103581, 1.02170983511, -2.49922168141, 3.3
103582, 1.20349356059, -2.41694088665, 3.3
103583, 1.37870422159, -2.32145959891, 3.3
103584, 1.54638487821, -2.21329930385, 3.3
103585, 1.70561971688, -2.0930507355, 3.3
103586, 1.85553905211, -1.96137064984, 3.3
103587, 1.99532407649, -1.81897823784, 3.3
103588, 2.12421133269, -1.66665119748, 3.3
103589, 2.2414968832, -1.50522148622, 3.3
103590, 2.34654015502, -1.33557077718, 3.3
103591, 2.43876743823, -1.15862564368, 3.3
103592, 2.51767501939, -0.975352498704, 3.3
103593, 2.58283193265, -0.7867523166, 3.3
103594, 2.63388231354, -0.593855166166, 3.3
103595, 2.6705473426, -0.397714584747, 3.3
103596, 2.69262676814, -0.199401824182, 3.3
103597, 2.7, -6.61309271538e-16, 3.3
103598, 2.7, 0, 3.5
103599, 2.69262676814, 0.199401824182, 3.5
103600, 2.6705473426, 0.397714584747, 3.5
103601, 2.63388231354, 0.593855166166, 3.5
103602, 2.58283193265, 0.7867523166, 3.5
103603, 2.51767501939, 0.975352498704, 3.5
103604, 2.43876743823, 1.15862564368, 3.5
103605, 2.34654015502, 1.33557077718, 3.5
103606, 2.2414968832, 1.50522148622, 3.5
103607, 2.12421133269, 1.66665119748, 3.5
103608, 1.99532407649, 1.81897823784, 3.5
103609, 1.85553905211, 1.96137064984, 3.5
103610, 1.70561971688, 2.0930507355, 3.5
103611, 1.54638487821, 2.21329930385, 3.5
103612, 1.37870422159, 2.32145959891, 3.5
103613, 1.20349356059, 2.41694088665, 3.5
103614, 1.02170983511, 2.49922168141, 3.5
103615, 0.834345884811, 2.56785259399, 3.5
103616, 0.642425026614, 2.62245878617, 3.5
103617, 0.446995465696, 2.66274201785, 3.5
103618, 0.249124570551, 2.68848227599, 3.5
103619, 0.0498930433896, 2.69953897623, 3.5
103620, -0.149610982273, 2.69585173071, 3.5
103621, -0.348297884631, 2.67744067787, 3.5
103622, -0.545082504723, 2.64440637252, 3.5
103623, -0.738890073193, 2.59692923656, 3.5
103624, -0.92866208031, 2.53526857366, 3.5
103625, -1.11336205718, 2.45976115296, 3.5
103626, -1.29198123657, 2.37081936982, 3.5
103627, -1.46354406247, 2.26892899342, 3.5
103628, -1.62711351822, 2.15464651365, 3.5
103629, -1.78179624417, 2.0285961018, 3.5
103630, -1.92674741691, 1.8914662015, 3.5
103631, -2.0611753634, 1.74400576871, 3.5
103632, -2.18434588481, 1.58702018119, 3.5
103633, -2.29558626647, 1.42136683977, 3.5
103634, -2.39428895198, 1.24795048556, 3.5
103635, -2.47991486151, 1.06771825855, 3.5
103636, -2.55199633603, 0.881654524667, 3.5
103637, -2.61013969152, 0.690775499504, 3.5
103638, -2.65402736914, 0.496123698104, 3.5
103639, -2.68341966961, 0.298762241107, 3.5
103640, -2.69815606238, 0.0997690483505, 3.5
103641, -2.69815606238, -0.0997690483505, 3.5
103642, -2.68341966961, -0.298762241107, 3.5
103643, -2.65402736914, -0.496123698104, 3.5
103644, -2.61013969152, -0.690775499504, 3.5
103645, -2.55199633603, -0.881654524667, 3.5
103646, -2.47991486151, -1.06771825855, 3.5
103647, -2.39428895198, -1.24795048556, 3.5
103648, -2.29558626647, -1.42136683977, 3.5
103649, -2.18434588481, -1.58702018119, 3.5
103650, -2.0611753634, -1.74400576871, 3.5
103651, -1.92674741691, -1.8914662015, 3.5
103652, -1.78179624417, -2.0285961018, 3.5
103653, -1.62711351822, -2.15464651365, 3.5
103654, -1.46354406247, -2.26892899342, 3.5
103655, -1.29198123657, -2.37081936982, 3.5
103656, -1.11336205718, -2.45976115296, 3.5
103657, -0.92866208031, -2.53526857366, 3.5
103658, -0.738890073193, -2.59692923656, 3.5
103659, -0.545082504723, -2.64440637252, 3.5
103660, -0.348297884631, -2.67744067787, 3.5
103661, -0.149610982273, -2.69585173071, 3.5
103662, 0.0498930433896, -2.69953897623, 3.5
103663, 0.249124570551, -2.68848227599, 3.5
103664, 0.446995465696, -2.66274201785, 3.5
103665, 0.642425026614, -2.62245878617, 3.5
103666, 0.834345884811, -2.56785259399, 3.5
103667, 1.02170983511, -2.49922168141, 3.5
103668, 1.20349356059, -2.41694088665, 3.5
103669, 1.37870422159, -2.32145959891, 3.5
103670, 1.54638487821, -2.21329930385, 3.5
103671, 1.70561971688, -2.0930507355, 3.5
103672, 1.85553905211, -1.96137064984, 3.5
103673, 1.99532407649, -1.81897823784, 3.5
103674, 2.12421133269, -1.66665119748, 3.5
103675, 2.2414968832, -1.50522148622, 3.5
103676, 2.34654015502, -1.33557077718, 3.5
103677, 2.43876743823, -1.15862564368, 3.5
103678, 2.51767501939, -0.975352498704, 3.5
103679, 2.58283193265, -0.7867523166, 3.5
103680, 2.63388231354, -0.593855166166, 3.5
103681, 2.6705473426, -0.397714584747, 3.5
103682, 2.69262676814, -0.199401824182, 3.5
103683, 2.7, -6.61309271538e-16, 3.5
103684, 2.7, 0, 3.7
103685, 2.69262676814, 0.199401824182, 3.7
103686, 2.6705473426, 0.397714584747, 3.7
103687, 2.63388231354, 0.593855166166, 3.7
103688, 2.58283193265, 0.7867523166, 3.7
103689, 2.51767501939, 0.975352498704, 3.7
103690, 2.43876743823, 1.15862564368, 3.7
103691, 2.34654015502, 1.33557077718, 3.7
103692, 2.2414968832, 1.50522148622, 3.7
103693, 2.12421133269, 1.66665119748, 3.7
103694, 1.99532407649, 1.81897823784, 3.7
103695, 1.85553905211, 1.96137064984, 3.7
103696, 1.70561971688, 2.0930507355, 3.7
103697, 1.54638487821, 2.21329930385, 3.7
103698, 1.37870422159, 2.32145959891, 3.7
103699, 1.20349356059, 2.41694088665, 3.7
103700, 1.02170983511, 2.49922168141, 3.7
103701, 0.834345884811, 2.56785259399, 3.7
103702, 0.642425026614, 2.62245878617, 3.7
103703, 0.446995465696, 2.66274201785, 3.7
103704, 0.249124570551, 2.68848227599, 3.7
103705, 0.0498930433896, 2.69953897623, 3.7
103706, -0.149610982273, 2.69585173071, 3.7
103707, -0.348297884631, 2.67744067787, 3.7
103708, -0.545082504723, 2.64440637252, 3.7
103709, -0.738890073193, 2.59692923656, 3.7
103710, -0.92866208031, 2.53526857366, 3.7
103711, -1.11336205718, 2.45976115296, 3.7
103712, -1.29198123657, 2.37081936982, 3.7
103713, -1.46354406247, 2.26892899342, 3.7
103714, -1.62711351822, 2.15464651365, 3.7
103715, -1.78179624417, 2.0285961018, 3.7
103716, -1.92674741691, 1.8914662015, 3.7
103717, -2.0611753634, 1.74400576871, 3.7
103718, -2.18434588481, 1.58702018119, 3.7
103719, -2.29558626647, 1.42136683977, 3.7
103720, -2.39428895198, 1.24795048556, 3.7
103721, -2.47991486151, 1.06771825855, 3.7
103722, -2.55199633603, 0.881654524667, 3.7
103723, -2.61013969152, 0.690775499504, 3.7
103724, -2.65402736914, 0.496123698104, 3.7
103725, -2.68341966961, 0.298762241107, 3.7
103726, -2.69815606238, 0.0997690483505, 3.7
103727, -2.69815606238, -0.0997690483505, 3.7
103728, -2.68341966961, -0.298762241107, 3.7
103729, -2.65402736914, -0.496123698104, 3.7
103730, -2.61013969152, -0.690775499504, 3.7
103731, -2.55199633603, -0.881654524667, 3.7
103732, -2.47991486151, -1.06771825855, 3.7
103733, -2.39428895198, -1.24795048556, 3.7
103734, -2.29558626647, -1.42136683977, 3.7
103735, -2.18434588481, -1.58702018119, 3.7
103736, -2.0611753634, -1.74400576871, 3.7
103737, -1.92674741691, -1.8914662015, 3.7
103738, -1.78179624417, -2.0285961018, 3.7
103739, -1.62711351822, -2.15464651365, 3.7
103740, -1.46354406247, -2.26892899342, 3.7
103741, -1.29198123657, -2.37081936982, 3.7
103742, -1.11336205718, -2.45976115296, 3.7
103743, -0.92866208031, -2.53526857366, 3.7
103744, -0.738890073193, -2.59692923656, 3.7
103745, -0.545082504723, -2.64440637252, 3.7
103746, -0.348297884631, -2.67744067787, 3.7
103747, -0.149610982273, -2.69585173071, 3.7
103748, 0.0498930433896, -2.69953897623, 3.7
103749, 0.249124570551, -2.68848227599, 3.7
103750, 0.446995465696, -2.66274201785, 3.7
103751, 0.642425026614, -2.62245878617, 3.7
103752, 0.834345884811, -2.56785259399, 3.7
103753, 1.02170983511, -2.49922168141, 3.7
103754, 1.20349356059, -2.41694088665, 3.7
103755, 1.37870422159, -2.32145959891, 3.7
103756, 1.54638487821, -2.21329930385, 3.7
103757, 1.70561971688, -2.0930507355, 3.7
103758, 1.85553905211, -1.96137064984, 3.7
103759, 1.99532407649, -1.81897823784, 3.7
103760, 2.12421133269, -1.66665119748, 3.7
103761, 2.2414968832, -1.50522148622, 3.7
103762, 2.34654015502, -1.33557077718, 3.7
103763, 2.43876743823, -1.15862564368, 3.7
103764, 2.51767501939, -0.975352498704, 3.7
103765, 2.58283193265, -0.7867523166, 3.7
103766, 2.63388231354, -0.593855166166, 3.7
103767, 2.6705473426, -0.397714584747, 3.7
103768, 2.69262676814, -0.199401824182, 3.7
103769, 2.7, -6.61309271538e-16, 3.7
103770, 2.7, 0, 3.9
103771, 2.69262676814, 0.199401824182, 3.9
103772, 2.6705473426, 0.397714584747, 3.9
103773, 2.63388231354, 0.593855166166, 3.9
103774, 2.58283193265, 0.7867523166, 3.9
103775, 2.51767501939, 0.975352498704, 3.9
103776, 2.43876743823, 1.15862564368, 3.9
103777, 2.34654015502, 1.33557077718, 3.9
103778, 2.2414968832, 1.50522148622, 3.9
103779, 2.12421133269, 1.66665119748, 3.9
103780, 1.99532407649, 1.81897823784, 3.9
103781, 1.85553905211, 1.96137064984, 3.9
103782, 1.70561971688, 2.0930507355, 3.9
103783, 1.54638487821, 2.21329930385, 3.9
103784, 1.37870422159, 2.32145959891, 3.9
103785, 1.20349356059, 2.41694088665, 3.9
103786, 1.02170983511, 2.49922168141, 3.9
103787, 0.834345884811, 2.56785259399, 3.9
103788, 0.642425026614, 2.62245878617, 3.9
103789, 0.446995465696, 2.66274201785, 3.9
103790, 0.249124570551, 2.68848227599, 3.9
103791, 0.0498930433896, 2.69953897623, 3.9
103792, -0.149610982273, 2.69585173071, 3.9
103793, -0.348297884631, 2.67744067787, 3.9
103794, -0.545082504723, 2.64440637252, 3.9
103795, -0.738890073193, 2.59692923656, 3.9
103796, -0.92866208031, 2.53526857366, 3.9
103797, -1.11336205718, 2.45976115296, 3.9
103798, -1.29198123657, 2.37081936982, 3.9
103799, -1.46354406247, 2.26892899342, 3.9
103800, -1.62711351822, 2.15464651365, 3.9
103801, -1.78179624417, 2.0285961018, 3.9
103802, -1.92674741691, 1.8914662015, 3.9
103803, -2.0611753634, 1.74400576871, 3.9
103804, -2.18434588481, 1.58702018119, 3.9
103805, -2.29558626647, 1.42136683977, 3.9
103806, -2.39428895198, 1.24795048556, 3.9
103807, -2.47991486151, 1.06771825855, 3.9
103808, -2.55199633603, 0.881654524667, 3.9
103809, -2.61013969152, 0.690775499504, 3.9
103810, -2.65402736914, 0.496123698104, 3.9
103811, -2.68341966961, 0.298762241107, 3.9
103812, -2.69815606238, 0.0997690483505, 3.9
103813, -2.69815606238, -0.0997690483505, 3.9
103814, -2.68341966961, -0.298762241107, 3.9
103815, -2.65402736914, -0.496123698104, 3.9
103816, -2.61013969152, -0.690775499504, 3.9
103817, -2.55199633603, -0.881654524667, 3.9
103818, -2.47991486151, -1.06771825855, 3.9
103819, -2.39428895198, -1.24795048556, 3.9
103820, -2.29558626647, -1.42136683977, 3.9
103821, -2.18434588481, -1.58702018119, 3.9
103822, -2.0611753634, -1.74400576871, 3.9
103823, -1.92674741691, -1.8914662015, 3.9
103824, -1.78179624417, -2.0285961018, 3.9
103825, -1.62711351822, -2.15464651365, 3.9
103826, -1.46354406247, -2.26892899342, 3.9
103827, -1.29198123657, -2.37081936982, 3.9
103828, -1.11336205718, -2.45976115296, 3.9
103829, -0.92866208031, -2.53526857366, 3.9
103830, -0.738890073193, -2.59692923656, 3.9
103831, -0.545082504723, -2.64440637252, 3.9
103832, -0.348297884631, -2.67744067787, 3.9
103833, -0.149610982273, -2.69585173071, 3.9
103834, 0.0498930433896, -2.69953897623, 3.9
103835, 0.249124570551, -2.68848227599, 3.9
103836, 0.446995465696, -2.66274201785, 3.9
103837, 0.642425026614, -2.62245878617, 3.9
103838, 0.834345884811, -2.56785259399, 3.9
103839, 1.02170983511, -2.49922168141, 3.9
103840, 1.20349356059, -2.41694088665, 3.9
103841, 1.37870422159, -2.32145959891, 3.9
103842, 1.54638487821, -2.21329930385, 3.9
103843, 1.70561971688, -2.0930507355, 3.9
103844, 1.85553905211, -1.96137064984, 3.9
103845, 1.99532407649, -1.81897823784, 3.9
103846, 2.12421133269, -1.66665119748, 3.9
103847, 2.2414968832, -1.50522148622, 3.9
103848, 2.34654015502, -1.33557077718, 3.9
103849, 2.43876743823, -1.15862564368, 3.9
103850, 2.51767501939, -0.975352498704, 3.9
103851, 2.58283193265, -0.7867523166, 3.9
103852, 2.63388231354, -0.593855166166, 3.9
103853, 2.6705473426, -0.397714584747, 3.9
103854, 2.69262676814, -0.199401824182, 3.9
103855, 2.7, -6.61309271538e-16, 3.9
103856, 2.7, 0, 4.1
103857, 2.69262676814, 0.199401824182, 4.1
103858, 2.6705473426, 0.397714584747, 4.1
103859, 2.63388231354, 0.593855166166, 4.1
103860, 2.58283193265, 0.7867523166, 4.1
103861, 2.51767501939, 0.975352498704, 4.1
103862, 2.43876743823, 1.15862564368, 4.1
103863, 2.34654015502, 1.33557077718, 4.1
103864, 2.2414968832, 1.50522148622, 4.1
103865, 2.12421133269, 1.66665119748, 4.1
103866, 1.99532407649, 1.81897823784, 4.1
103867, 1.85553905211, 1.96137064984, 4.1
103868, 1.70561971688, 2.0930507355, 4.1
103869, 1.54638487821, 2.21329930385, 4.1
103870, 1.37870422159, 2.32145959891, 4.1
103871, 1.20349356059, 2.41694088665, 4.1
103872, 1.02170983511, 2.49922168141, 4.1
103873, 0.834345884811, 2.56785259399, 4.1
103874, 0.642425026614, 2.62245878617, 4.1
103875, 0.446995465696, 2.66274201785, 4.1
103876, 0.249124570551, 2.68848227599, 4.1
103877, 0.0498930433896, 2.69953897623, 4.1
103878, -0.149610982273, 2.69585173071, 4.1
103879, -0.348297884631, 2.67744067787, 4.1
103880, -0.545082504723, 2.64440637252, 4.1
103881, -0.738890073193, 2.59692923656, 4.1
103882, -0.92866208031, 2.53526857366, 4.1
103883, -1.11336205718, 2.45976115296, 4.1
103884, -1.29198123657, 2.37081936982, 4.1
103885, -1.46354406247, 2.26892899342, 4.1
103886, -1.62711351822, 2.15464651365, 4.1
103887, -1.78179624417, 2.0285961018, 4.1
103888, -1.92674741691, 1.8914662015, 4.1
103889, -2.0611753634, 1.74400576871, 4.1
103890, -2.18434588481, 1.58702018119, 4.1
103891, -2.29558626647, 1.42136683977, 4.1
103892, -2.39428895198, 1.24795048556, 4.1
103893, -2.47991486151, 1.06771825855, 4.1
103894, -2.55199633603, 0.881654524667, 4.1
103895, -2.61013969152, 0.690775499504, 4.1
103896, -2.65402736914, 0.496123698104, 4.1
103897, -2.68341966961, 0.298762241107, 4.1
103898, -2.69815606238, 0.0997690483505, 4.1
103899, -2.69815606238, -0.0997690483505, 4.1
103900, -2.68341966961, -0.298762241107, 4.1
103901, -2.65402736914, -0.496123698104, 4.1
103902, -2.61013969152, -0.690775499504, 4.1
103903, -2.55199633603, -0.881654524667, 4.1
103904, -2.47991486151, -1.06771825855, 4.1
103905, -2.39428895198, -1.24795048556, 4.1
103906, -2.29558626647, -1.42136683977, 4.1
103907, -2.18434588481, -1.58702018119, 4.1
103908, -2.0611753634, -1.74400576871, 4.1
103909, -1.92674741691, -1.8914662015, 4.1
103910, -1.78179624417, -2.0285961018, 4.1
103911, -1.62711351822, -2.15464651365, 4.1
103912, -1.46354406247, -2.26892899342, 4.1
103913, -1.29198123657, -2.37081936982, 4.1
103914, -1.11336205718, -2.45976115296, 4.1
103915, -0.92866208031, -2.53526857366, 4.1
103916, -0.738890073193, -2.59692923656, 4.1
103917, -0.545082504723, -2.64440637252, 4.1
103918, -0.348297884631, -2.67744067787, 4.1
103919, -0.149610982273, -2.69585173071, 4.1
103920, 0.0498930433896, -2.69953897623, 4.1
103921, 0.249124570551, -2.68848227599, 4.1
103922, 0.446995465696, -2.66274201785, 4.1
103923, 0.642425026614, -2.62245878617, 4.1
103924, 0.834345884811, -2.56785259399, 4.1
103925, 1.02170983511, -2.49922168141, 4.1
103926, 1.20349356059, -2.41694088665, 4.1
103927, 1.37870422159, -2.32145959891, 4.1
103928, 1.54638487821, -2.21329930385, 4.1
103929, 1.70561971688, -2.0930507355, 4.1
103930, 1.85553905211, -1.96137064984, 4.1
103931, 1.99532407649, -1.81897823784, 4.1
103932, 2.12421133269, -1.66665119748, 4.1
103933, 2.2414968832, -1.50522148622, 4.1
103934, 2.34654015502, -1.33557077718, 4.1
103935, 2.43876743823, -1.15862564368, 4.1
103936, 2.51767501939, -0.975352498704, 4.1
103937, 2.58283193265, -0.7867523166, 4.1
103938, 2.63388231354, -0.593855166166, 4.1
103939, 2.6705473426, -0.397714584747, 4.1
103940, 2.69262676814, -0.199401824182, 4.1
103941, 2.7, -6.61309271538e-16, 4.1
103942, 2.7, 0, 4.3
103943, 2.69262676814, 0.199401824182, 4.3
103944, 2.6705473426, 0.397714584747, 4.3
103945, 2.63388231354, 0.593855166166, 4.3
103946, 2.58283193265, 0.7867523166, 4.3
103947, 2.51767501939, 0.975352498704, 4.3
103948, 2.43876743823, 1.15862564368, 4.3
103949, 2.34654015502, 1.33557077718, 4.3
103950, 2.2414968832, 1.50522148622, 4.3
103951, 2.12421133269, 1.66665119748, 4.3
103952, 1.99532407649, 1.81897823784, 4.3
103953, 1.85553905211, 1.96137064984, 4.3
103954, 1.70561971688, 2.0930507355, 4.3
103955, 1.54638487821, 2.21329930385, 4.3
103956, 1.37870422159, 2.32145959891, 4.3
103957, 1.20349356059, 2.41694088665, 4.3
103958, 1.02170983511, 2.49922168141, 4.3
103959, 0.834345884811, 2.56785259399, 4.3
103960, 0.642425026614, 2.62245878617, 4.3
103961, 0.446995465696, 2.66274201785, 4.3
103962, 0.249124570551, 2.68848227599, 4.3
103963, 0.0498930433896, 2.69953897623, 4.3
103964, -0.149610982273, 2.69585173071, 4.3
103965, -0.348297884631, 2.67744067787, 4.3
103966, -0.545082504723, 2.64440637252, 4.3
103967, -0.738890073193, 2.59692923656, 4.3
103968, -0.92866208031, 2.53526857366, 4.3
103969, -1.11336205718, 2.45976115296, 4.3
103970, -1.29198123657, 2.37081936982, 4.3
103971, -1.46354406247, 2.26892899342, 4.3
103972, -1.62711351822, 2.15464651365, 4.3
103973, -1.78179624417, 2.0285961018, 4.3
103974, -1.92674741691, 1.8914662015, 4.3
103975, -2.0611753634, 1.74400576871, 4.3
103976, -2.18434588481, 1.58702018119, 4.3
103977, -2.29558626647, 1.42136683977, 4.3
103978, -2.39428895198, 1.24795048556, 4.3
103979, -2.47991486151, 1.06771825855, 4.3
103980, -2.55199633603, 0.881654524667, 4.3
103981, -2.61013969152, 0.690775499504, 4.3
103982, -2.65402736914, 0.496123698104, 4.3
103983, -2.68341966961, 0.298762241107, 4.3
103984, -2.69815606238, 0.0997690483505, 4.3
103985, -2.69815606238, -0.0997690483505, 4.3
103986, -2.68341966961, -0.298762241107, 4.3
103987, -2.65402736914, -0.496123698104, 4.3
103988, -2.61013969152, -0.690775499504, 4.3
103989, -2.55199633603, -0.881654524667, 4.3
103990, -2.47991486151, -1.06771825855, 4.3
103991, -2.39428895198, -1.24795048556, 4.3
103992, -2.29558626647, -1.42136683977, 4.3
103993, -2.18434588481, -1.58702018119, 4.3
103994, -2.0611753634, -1.74400576871, 4.3
103995, -1.92674741691, -1.8914662015, 4.3
103996, -1.78179624417, -2.0285961018, 4.3
103997, -1.62711351822, -2.15464651365, 4.3
103998, -1.46354406247, -2.26892899342, 4.3
103999, -1.29198123657, -2.37081936982, 4.3
104000, -1.11336205718, -2.45976115296, 4.3
104001, -0.92866208031, -2.53526857366, 4.3
104002, -0.738890073193, -2.59692923656, 4.3
104003, -0.545082504723, -2.64440637252, 4.3
104004, -0.348297884631, -2.67744067787, 4.3
104005, -0.149610982273, -2.69585173071, 4.3
104006, 0.0498930433896, -2.69953897623, 4.3
104007, 0.249124570551, -2.68848227599, 4.3
104008, 0.446995465696, -2.66274201785, 4.3
104009, 0.642425026614, -2.62245878617, 4.3
104010, 0.834345884811, -2.56785259399, 4.3
104011, 1.02170983511, -2.49922168141, 4.3
104012, 1.20349356059, -2.41694088665, 4.3
104013, 1.37870422159, -2.32145959891, 4.3
104014, 1.54638487821, -2.21329930385, 4.3
104015, 1.70561971688, -2.0930507355, 4.3
104016, 1.85553905211, -1.96137064984, 4.3
104017, 1.99532407649, -1.81897823784, 4.3
104018, 2.12421133269, -1.66665119748, 4.3
104019, 2.2414968832, -1.50522148622, 4.3
104020, 2.34654015502, -1.33557077718, 4.3
104021, 2.43876743823, -1.15862564368, 4.3
104022, 2.51767501939, -0.975352498704, 4.3
104023, 2.58283193265, -0.7867523166, 4.3
104024, 2.63388231354, -0.593855166166, 4.3
104025, 2.6705473426, -0.397714584747, 4.3
104026, 2.69262676814, -0.199401824182, 4.3
104027, 2.7, -6.61309271538e-16, 4.3
104028, 2.7, 0, 4.5
104029, 2.69262676814, 0.199401824182, 4.5
104030, 2.6705473426, 0.397714584747, 4.5
104031, 2.63388231354, 0.593855166166, 4.5
104032, 2.58283193265, 0.7867523166, 4.5
104033, 2.51767501939, 0.975352498704, 4.5
104034, 2.43876743823, 1.15862564368, 4.5
104035, 2.34654015502, 1.33557077718, 4.5
104036, 2.2414968832, 1.50522148622, 4.5
104037, 2.12421133269, 1.66665119748, 4.5
104038, 1.99532407649, 1.81897823784, 4.5
104039, 1.85553905211, 1.96137064984, 4.5
104040, 1.70561971688, 2.0930507355, 4.5
104041, 1.54638487821, 2.21329930385, 4.5
104042, 1.37870422159, 2.32145959891, 4.5
104043, 1.20349356059, 2.41694088665, 4.5
104044, 1.02170983511, 2.49922168141, 4.5
104045, 0.834345884811, 2.56785259399, 4.5
104046, 0.642425026614, 2.62245878617, 4.5
104047, 0.446995465696, 2.66274201785, 4.5
104048, 0.249124570551, 2.68848227599, 4.5
104049, 0.0498930433896, 2.69953897623, 4.5
104050, -0.149610982273, 2.69585173071, 4.5
104051, -0.348297884631, 2.67744067787, 4.5
104052, -0.545082504723, 2.64440637252, 4.5
104053, -0.738890073193, 2.59692923656, 4.5
104054, -0.92866208031, 2.53526857366, 4.5
104055, -1.11336205718, 2.45976115296, 4.5
104056, -1.29198123657, 2.37081936982, 4.5
104057, -1.46354406247, 2.26892899342, 4.5
104058, -1.62711351822, 2.15464651365, 4.5
104059, -1.78179624417, 2.0285961018, 4.5
104060, -1.92674741691, 1.8914662015, 4.5
104061, -2.0611753634, 1.74400576871, 4.5
104062, -2.18434588481, 1.58702018119, 4.5
104063, -2.29558626647, 1.42136683977, 4.5
104064, -2.39428895198, 1.24795048556, 4.5
104065, -2.47991486151, 1.06771825855, 4.5
104066, -2.55199633603, 0.881654524667, 4.5
104067, -2.61013969152, 0.690775499504, 4.5
104068, -2.65402736914, 0.496123698104, 4.5
104069, -2.68341966961, 0.298762241107, 4.5
104070, -2.69815606238, 0.0997690483505, 4.5
104071, -2.69815606238, -0.0997690483505, 4.5
104072, -2.68341966961, -0.298762241107, 4.5
104073, -2.65402736914, -0.496123698104, 4.5
104074, -2.61013969152, -0.690775499504, 4.5
104075, -2.55199633603, -0.881654524667, 4.5
104076, -2.47991486151, -1.06771825855, 4.5
104077, -2.39428895198, -1.24795048556, 4.5
104078, -2.29558626647, -1.42136683977, 4.5
104079, -2.18434588481, -1.58702018119, 4.5
104080, -2.0611753634, -1.74400576871, 4.5
104081, -1.92674741691, -1.8914662015, 4.5
104082, -1.78179624417, -2.0285961018, 4.5
104083, -1.62711351822, -2.15464651365, 4.5
104084, -1.46354406247, -2.26892899342, 4.5
104085, -1.29198123657, -2.37081936982, 4.5
104086, -1.11336205718, -2.45976115296, 4.5
104087, -0.92866208031, -2.53526857366, 4.5
104088, -0.738890073193, -2.59692923656, 4.5
104089, -0.545082504723, -2.64440637252, 4.5
104090, -0.348297884631, -2.67744067787, 4.5
104091, -0.149610982273, -2.69585173071, 4.5
104092, 0.0498930433896, -2.69953897623, 4.5
104093, 0.249124570551, -2.68848227599, 4.5
104094, 0.446995465696, -2.66274201785, 4.5
104095, 0.642425026614, -2.62245878617, 4.5
104096, 0.834345884811, -2.56785259399, 4.5
104097, 1.02170983511, -2.49922168141, 4.5
104098, 1.20349356059, -2.41694088665, 4.5
104099, 1.37870422159, -2.32145959891, 4.5
104100, 1.54638487821, -2.21329930385, 4.5
104101, 1.70561971688, -2.0930507355, 4.5
104102, 1.85553905211, -1.96137064984, 4.5
104103, 1.99532407649, -1.81897823784, 4.5
104104, 2.12421133269, -1.66665119748, 4.5
104105, 2.2414968832, -1.50522148622, 4.5
104106, 2.34654015502, -1.33557077718, 4.5
104107, 2.43876743823, -1.15862564368, 4.5
104108, 2.51767501939, -0.975352498704, 4.5
104109, 2.58283193265, -0.7867523166, 4.5
104110, 2.63388231354, -0.593855166166, 4.5
104111, 2.6705473426, -0.397714584747, 4.5
104112, 2.69262676814, -0.199401824182, 4.5
104113, 2.7, -6.61309271538e-16, 4.5
104114, 2.7, 0, 4.7
104115, 2.69262676814, 0.199401824182, 4.7
104116, 2.6705473426, 0.397714584747, 4.7
104117, 2.63388231354, 0.593855166166, 4.7
104118, 2.58283193265, 0.7867523166, 4.7
104119, 2.51767501939, 0.975352498704, 4.7
104120, 2.43876743823, 1.15862564368, 4.7
104121, 2.34654015502, 1.33557077718, 4.7
104122, 2.2414968832, 1.50522148622, 4.7
104123, 2.12421133269, 1.66665119748, 4.7
104124, 1.99532407649, 1.81897823784, 4.7
104125, 1.85553905211, 1.96137064984, 4.7
104126, 1.70561971688, 2.0930507355, 4.7
104127, 1.54638487821, 2.21329930385, 4.7
104128, 1.37870422159, 2.32145959891, 4.7
104129, 1.20349356059, 2.41694088665, 4.7
104130, 1.02170983511, 2.49922168141, 4.7
104131, 0.834345884811, 2.56785259399, 4.7
104132, 0.642425026614, 2.62245878617, 4.7
104133, 0.446995465696, 2.66274201785, 4.7
104134, 0.249124570551, 2.68848227599, 4.7
104135, 0.0498930433896, 2.69953897623, 4.7
104136, -0.149610982273, 2.69585173071, 4.7
104137, -0.348297884631, 2.67744067787, 4.7
104138, -0.545082504723, 2.64440637252, 4.7
104139, -0.738890073193, 2.59692923656, 4.7
104140, -0.92866208031, 2.53526857366, 4.7
104141, -1.11336205718, 2.45976115296, 4.7
104142, -1.29198123657, 2.37081936982, 4.7
104143, -1.46354406247, 2.26892899342, 4.7
104144, -1.62711351822, 2.15464651365, 4.7
104145, -1.78179624417, 2.0285961018, 4.7
104146, -1.92674741691, 1.8914662015, 4.7
104147, -2.0611753634, 1.74400576871, 4.7
104148, -2.18434588481, 1.58702018119, 4.7
104149, -2.29558626647, 1.42136683977, 4.7
104150, -2.39428895198, 1.24795048556, 4.7
104151, -2.47991486151, 1.06771825855, 4.7
104152, -2.55199633603, 0.881654524667, 4.7
104153, -2.61013969152, 0.690775499504, 4.7
104154, -2.65402736914, 0.496123698104, 4.7
104155, -2.68341966961, 0.298762241107, 4.7
104156, -2.69815606238, 0.0997690483505, 4.7
104157, -2.69815606238, -0.0997690483505, 4.7
104158, -2.68341966961, -0.298762241107, 4.7
104159, -2.65402736914, -0.496123698104, 4.7
104160, -2.61013969152, -0.690775499504, 4.7
104161, -2.55199633603, -0.881654524667, 4.7
104162, -2.47991486151, -1.06771825855, 4.7
104163, -2.39428895198, -1.24795048556, 4.7
104164, -2.29558626647, -1.42136683977, 4.7
104165, -2.18434588481, -1.58702018119, 4.7
104166, -2.0611753634, -1.74400576871, 4.7
104167, -1.92674741691, -1.8914662015, 4.7
104168, -1.78179624417, -2.0285961018, 4.7
104169, -1.62711351822, -2.15464651365, 4.7
104170, -1.46354406247, -2.26892899342, 4.7
104171, -1.29198123657, -2.37081936982, 4.7
104172, -1.11336205718, -2.45976115296, 4.7
104173, -0.92866208031, -2.53526857366, 4.7
104174, -0.738890073193, -2.59692923656, 4.7
104175, -0.545082504723, -2.64440637252, 4.7
104176, -0.348297884631, -2.67744067787, 4.7
104177, -0.149610982273, -2.69585173071, 4.7
104178, 0.0498930433896, -2.69953897623, 4.7
104179, 0.249124570551, -2.68848227599, 4.7
104180, 0.446995465696, -2.66274201785, 4.7
104181, 0.642425026614, -2.62245878617, 4.7
104182, 0.834345884811, -2.56785259399, 4.7
104183, 1.02170983511, -2.49922168141, 4.7
104184, 1.20349356059, -2.41694088665, 4.7
104185, 1.37870422159, -2.32145959891, 4.7
104186, 1.54638487821, -2.21329930385, 4.7
104187, 1.70561971688, -2.0930507355, 4.7
104188, 1.85553905211, -1.96137064984, 4.7
104189, 1.99532407649, -1.81897823784, 4.7
104190, 2.12421133269, -1.66665119748, 4.7
104191, 2.2414968832, -1.50522148622, 4.7
104192, 2.34654015502, -1.33557077718, 4.7
104193, 2.43876743823, -1.15862564368, 4.7
104194, 2.51767501939, -0.975352498704, 4.7
104195, 2.58283193265, -0.7867523166, 4.7
104196, 2.63388231354, -0.593855166166, 4.7
104197, 2.6705473426, -0.397714584747, 4.7
104198, 2.69262676814, -0.199401824182, 4.7
104199, 2.7, -6.61309271538e-16, 4.7
104200, 2.7, 0, 4.9
104201, 2.69262676814, 0.199401824182, 4.9
104202, 2.6705473426, 0.397714584747, 4.9
104203, 2.63388231354, 0.593855166166, 4.9
104204, 2.58283193265, 0.7867523166, 4.9
104205, 2.51767501939, 0.975352498704, 4.9
104206, 2.43876743823, 1.15862564368, 4.9
104207, 2.34654015502, 1.33557077718, 4.9
104208, 2.2414968832, 1.50522148622, 4.9
104209, 2.12421133269, 1.66665119748, 4.9
104210, 1.99532407649, 1.81897823784, 4.9
104211, 1.85553905211, 1.96137064984, 4.9
104212, 1.70561971688, 2.0930507355, 4.9
104213, 1.54638487821, 2.21329930385, 4.9
104214, 1.37870422159, 2.32145959891, 4.9
104215, 1.20349356059, 2.41694088665, 4.9
104216, 1.02170983511, 2.49922168141, 4.9
104217, 0.834345884811, 2.56785259399, 4.9
104218, 0.642425026614, 2.62245878617, 4.9
104219, 0.446995465696, 2.66274201785, 4.9
104220, 0.249124570551, 2.68848227599, 4.9
104221, 0.0498930433896, 2.69953897623, 4.9
104222, -0.149610982273, 2.69585173071, 4.9
104223, -0.348297884631, 2.67744067787, 4.9
104224, -0.545082504723, 2.64440637252, 4.9
104225, -0.738890073193, 2.59692923656, 4.9
104226, -0.92866208031, 2.53526857366, 4.9
104227, -1.11336205718, 2.45976115296, 4.9
104228, -1.29198123657, 2.37081936982, 4.9
104229, -1.46354406247, 2.26892899342, 4.9
104230, -1.62711351822, 2.15464651365, 4.9
104231, -1.78179624417, 2.0285961018, 4.9
104232, -1.92674741691, 1.8914662015, 4.9
104233, -2.0611753634, 1.74400576871, 4.9
104234, -2.18434588481, 1.58702018119, 4.9
104235, -2.29558626647, 1.42136683977, 4.9
104236, -2.39428895198, 1.24795048556, 4.9
104237, -2.47991486151, 1.06771825855, 4.9
104238, -2.55199633603, 0.881654524667, 4.9
104239, -2.61013969152, 0.690775499504, 4.9
104240, -2.65402736914, 0.496123698104, 4.9
104241, -2.68341966961, 0.298762241107, 4.9
104242, -2.69815606238, 0.0997690483505, 4.9
104243, -2.69815606238, -0.0997690483505, 4.9
104244, -2.68341966961, -0.298762241107, 4.9
104245, -2.65402736914, -0.496123698104, 4.9
104246, -2.61013969152, -0.690775499504, 4.9
104247, -2.55199633603, -0.881654524667, 4.9
104248, -2.47991486151, -1.06771825855, 4.9
104249, -2.39428895198, -1.24795048556, 4.9
104250, -2.29558626647, -1.42136683977, 4.9
104251, -2.18434588481, -1.58702018119, 4.9
104252, -2.0611753634, -1.74400576871, 4.9
104253, -1.92674741691, -1.8914662015, 4.9
104254, -1.78179624417, -2.0285961018, 4.9
104255, -1.62711351822, -2.15464651365, 4.9
104256, -1.46354406247, -2.26892899342, 4.9
104257, -1.29198123657, -2.37081936982, 4.9
104258, -1.11336205718, -2.45976115296, 4.9
104259, -0.92866208031, -2.53526857366, 4.9
104260, -0.738890073193, -2.59692923656, 4.9
104261, -0.545082504723, -2.64440637252, 4.9
104262, -0.348297884631, -2.67744067787, 4.9
104263, -0.149610982273, -2.69585173071, 4.9
104264, 0.0498930433896, -2.69953897623, 4.9
104265, 0.249124570551, -2.68848227599, 4.9
104266, 0.446995465696, -2.66274201785, 4.9
104267, 0.642425026614, -2.62245878617, 4.9
104268, 0.834345884811, -2.56785259399, 4.9
104269, 1.02170983511, -2.49922168141, 4.9
104270, 1.20349356059, -2.41694088665, 4.9
104271, 1.37870422159, -2.32145959891, 4.9
104272, 1.54638487821, -2.21329930385, 4.9
104273, 1.70561971688, -2.0930507355, 4.9
104274, 1.85553905211, -1.96137064984, 4.9
104275, 1.99532407649, -1.81897823784, 4.9
104276, 2.12421133269, -1.66665119748, 4.9
104277, 2.2414968832, -1.50522148622, 4.9
104278, 2.34654015502, -1.33557077718, 4.9
104279, 2.43876743823, -1.15862564368, 4.9
104280, 2.51767501939, -0.975352498704, 4.9
104281, 2.58283193265, -0.7867523166, 4.9
104282, 2.63388231354, -0.593855166166, 4.9
104283, 2.6705473426, -0.397714584747, 4.9
104284, 2.69262676814, -0.199401824182, 4.9
104285, 2.7, -6.61309271538e-16, 4.9
104286, 2.89827200759, 0.100096803012, 0
104287, 2.89827200759, 0.100096803012, 5
104288, 2.88446042161, 0.299813402186, 0
104289, 2.88446042161, 0.299813402186, 5
104290, 2.85690306814, 0.498101253964, 0
104291, 2.85690306814, 0.498101253964, 5
104292, 2.81573127053, 0.694015426433, 0
104293, 2.81573127053, 0.694015426433, 5
104294, 2.76114123114, 0.886622299342, 0
104295, 2.76114123114, 0.886622299342, 5
104296, 2.69339309636, 1.07500401323, 0
104297, 2.69339309636, 1.07500401323, 5
104298, 2.61280971691, 1.25826284344, 0
104299, 2.61280971691, 1.25826284344, 5
104300, 2.5197751093, 1.43552547819, 0
104301, 2.5197751093, 1.43552547819, 5
104302, 2.41473262579, 1.6059471803, 0
104303, 2.41473262579, 1.6059471803, 5
104304, 2.29818284165, 1.76871581276, 0
104305, 2.29818284165, 1.76871581276, 5
104306, 2.17068116969, 1.9230557089, 0
104307, 2.17068116969, 1.9230557089, 5
104308, 2.03283521343, 2.06823136883, 0
104309, 2.03283521343, 2.06823136883, 5
104310, 1.88530187164, 2.20355096442, 0
104311, 1.88530187164, 2.20355096442, 5
104312, 1.72878420786, 2.32836963617, 0
104313, 1.72878420786, 2.32836963617, 5
104314, 1.56402810005, 2.44209256627, 0
104315, 1.56402810005, 2.44209256627, 5
104316, 1.39181868608, 2.54417781317, 0
104317, 1.39181868608, 2.54417781317, 5
104318, 1.21297662225, 2.63413889418, 0
104319, 1.21297662225, 2.63413889418, 5
104320, 1.02835417242, 2.71154710378, 0
104321, 1.02835417242, 2.71154710378, 5
104322, 0.838831146655, 2.7760335566, 0
104323, 0.838831146655, 2.7760335566, 5
104324, 0.645310708472, 2.82729094532, 0
104325, 0.645310708472, 2.82729094532, 5
104326, 0.448715070891, 2.86507500515, 0
104327, 0.448715070891, 2.86507500515, 5
104328, 0.249981101653, 2.88920567783, 0
104329, 0.249981101653, 2.88920567783, 5
104330, 0.0500558586256, 2.89956796971, 0
104331, 0.0500558586256, 2.89956796971, 5
104332, -0.150107923364, 2.89611249977, 0
104333, -0.150107923364, 2.89611249977, 5
104334, -0.34955637274, 2.87885573488, 0
104335, -0.34955637274, 2.87885573488, 5
104336, -0.547339026813, 2.84787991139, 0
104337, -0.547339026813, 2.84787991139, 5
104338, -0.742513361166, 2.80333264321, 0
104339, -0.742513361166, 2.80333264321, 5
104340, -0.934149281214, 2.74542621835, 0
104341, -0.934149281214, 2.74542621835, 5
104342, -1.12133355453, 2.6744365873, 0
104343, -1.12133355453, 2.6744365873, 5
104344, -1.3031741628, 2.59070204797, 0
104345, -1.3031741628, 2.59070204797, 5
104346, -1.47880455273, 2.4946216336, 0
104347, -1.47880455273, 2.4946216336, 5
104348, -1.64738776552, 2.38665321109, 0
104349, -1.64738776552, 2.38665321109, 5
104350, -1.80812042539, 2.26731129915, 0
104351, -1.80812042539, 2.26731129915, 5
104352, -1.96023656802, 2.13716461635, 0
104353, -1.96023656802, 2.13716461635, 5
104354, -2.10301129071, 1.99683337089, 0
104355, -2.10301129071, 1.99683337089, 5
104356, -2.2357642069, 1.84698630507, 0
104357, -2.2357642069, 1.84698630507, 5
104358, -2.35786268848, 1.68833750839, 0
104359, -2.35786268848, 1.68833750839, 5
104360, -2.46872488059, 1.52164301461, 0
104361, -2.46872488059, 1.52164301461, 5
104362, -2.56782247439, 1.34769719892, 0
104363, -2.56782247439, 1.34769719892, 5
104364, -2.65468322472, 1.16732899234, 0
104365, -2.65468322472, 1.16732899234, 5
104366, -2.72889320055, 0.981397931516, 0
104367, -2.72889320055, 0.981397931516, 5
104368, -2.79009875754, 0.790790062618, 0
104369, -2.79009875754, 0.790790062618, 5
104370, -2.83800822335, 0.596413718948, 0
104371, -2.83800822335, 0.596413718948, 5
104372, -2.87239328756, 0.399195192302, 0
104373, -2.87239328756, 0.399195192302, 5
104374, -2.89309008967, 0.200074318772, 0
104375, -2.89309008967, 0.200074318772, 5
104376, -2.9, 3.55147571752e-16, 0
104377, -2.9, 3.55147571752e-16, 5
104378, -2.89309008967, -0.200074318772, 0
104379, -2.89309008967, -0.200074318772, 5
104380, -2.87239328756, -0.399195192302, 0
104381, -2.87239328756, -0.399195192302, 5
104382, -2.83800822335, -0.596413718948, 0
104383, -2.83800822335, -0.596413718948, 5
104384, -2.79009875754, -0.790790062618, 0
104385, -2.79009875754, -0.790790062618, 5
104386, -2.72889320055, -0.981397931516, 0
104387, -2.72889320055, -0.981397931516, 5
104388, -2.65468322472, -1.16732899234, 0
104389, -2.65468322472, -1.16732899234, 5
104390, -2.56782247439, -1.34769719892, 0
104391, -2.56782247439, -1.34769719892, 5
104392, -2.46872488059, -1.52164301461, 0
104393, -2.46872488059, -1.52164301461, 5
104394, -2.35786268848, -1.68833750839, 0
104395, -2.35786268848, -1.68833750839, 5
104396, -2.2357642069, -1.84698630507, 0
104397, -2.2357642069, -1.84698630507, 5
104398, -2.10301129071, -1.99683337089, 0
104399, -2.10301129071, -1.99683337089, 5
104400, -1.96023656802, -2.13716461635, 0
104401, -1.96023656802, -2.13716461635, 5
104402, -1.80812042539, -2.26731129915, 0
104403, -1.80812042539, -2.26731129915, 5
104404, -1.64738776552, -2.38665321109, 0
104405, -1.64738776552, -2.38665321109, 5
104406, -1.47880455273, -2.4946216336, 0
104407, -1.47880455273, -2.4946216336, 5
104408, -1.3031741628, -2.59070204797, 0
104409, -1.3031741628, -2.59070204797, 5
104410, -1.12133355453, -2.6744365873, 0
104411, -1.12133355453, -2.6744365873, 5
104412, -0.934149281214, -2.74542621835, 0
104413, -0.934149281214, -2.74542621835, 5
104414, -0.742513361166, -2.80333264321, 0
104415, -0.742513361166, -2.80333264321, 5
104416, -0.547339026813, -2.84787991139, 0
104417, -0.547339026813, -2.84787991139, 5
104418, -0.34955637274, -2.87885573488, 0
104419, -0.34955637274, -2.87885573488, 5
104420, -0.150107923364, -2.89611249977, 0
104421, -0.150107923364, -2.89611249977, 5
104422, 0.0500558586255, -2.89956796971, 0
104423, 0.0500558586255, -2.89956796971, 5
104424, 0.249981101653, -2.88920567783, 0
104425, 0.249981101653, -2.88920567783, 5
104426, 0.448715070891, -2.86507500515, 0
104427, 0.448715070891, -2.86507500515, 5
104428, 0.645310708472, -2.82729094532, 0
104429, 0.645310708472, -2.82729094532, 5
104430, 0.838831146655, -2.7760335566, 0
104431, 0.838831146655, -2.7760335566, 5
104432, 1.02835417242, -2.71154710378, 0
104433, 1.02835417242, -2.71154710378, 5
104434, 1.21297662225, -2.63413889418, 0
104435, 1.21297662225, -2.63413889418, 5
104436, 1.39181868608, -2.54417781317, 0
104437, 1.39181868608, -2.54417781317, 5
104438, 1.56402810005, -2.44209256627, 0
104439, 1.56402810005, -2.44209256627, 5
104440, 1.72878420786, -2.32836963617, 0
104441, 1.72878420786, -2.32836963617, 5
104442, 1.88530187164, -2.20355096442, 0
104443, 1.88530187164, -2.20355096442, 5
104444, 2.03283521343, -2.06823136883, 0
104445, 2.03283521343, -2.06823136883, 5
104446, 2.17068116969, -1.9230557089, 0
104447, 2.17068116969, -1.9230557089, 5
104448, 2.29818284165, -1.76871581276, 0
104449, 2.29818284165, -1.76871581276, 5
104450, 2.41473262579, -1.6059471803, 0
104451, 2.41473262579, -1.6059471803, 5
104452, 2.5197751093, -1.43552547819, 0
104453, 2.5197751093, -1.43552547819, 5
104454, 2.61280971691, -1.25826284344, 0
104455, 2.61280971691, -1.25826284344, 5
104456, 2.69339309636, -1.07500401323, 0
104457, 2.69339309636, -1.07500401323, 5
104458, 2.76114123114, -0.886622299342, 0
104459, 2.76114123114, -0.886622299342, 5
104460, 2.81573127053, -0.694015426433, 0
104461, 2.81573127053, -0.694015426433, 5
104462, 2.85690306814, -0.498101253964, 0
104463, 2.85690306814, -0.498101253964, 5
104464, 2.88446042161, -0.299813402186, 0
104465, 2.88446042161, -0.299813402186, 5
104466, 2.89827200759, -0.100096803012, 0
104467, 2.89827200759, -0.100096803012, 5
*Element, type=T3D2, elset=EMBMESH_FIBERS_T0
100000, 100000,100001
100001, 100002,100003
100002, 100004,100005
100003, 100006,100007
100004, 100008,100009
100005, 100010,100011
100006, 100012,100013
100007, 100014,100015
100008, 100016,100017
100009, 100018,100019
100010, 100020,100021
100011, 100022,100023
100012, 100024,100025
100013, 100026,100027
100014, 100028,100029
100015, 100030,100031
100016, 100032,100033
100017, 100034,100035
100018, 100036,100037
100019, 100038,100039
100020, 100040,100041
100021, 100042,100043
100022, 100044,100045
100023, 100046,100047
100024, 100048,100049
100025, 100050,100051
100026, 100052,100053
100027, 100054,100055
100028, 100056,100057
100029, 100058,100059
100030, 100060,100061
100031, 100062,100063
100032, 100064,100065
100033, 100066,100067
100034, 100068,100069
100035, 100070,100071
100036, 100072,100073
100037, 100074,100075
100038, 100076,100077
100039, 100078,100079
100040, 100080,100081
100041, 100082,100083
100042, 100084,100085
100043, 100086,100087
100044, 100088,100089
100045, 100090,100091
100046, 100092,100093
100047, 100094,100095
100048, 100096,100097
100049, 100098,100099
100050, 100100,100101
100051, 100102,100103
100052, 100104,100105
100053, 100106,100107
100054, 100108,100109
100055, 100110,100111
100056, 100112,100113
100057, 100114,100115
100058, 100116,100117
100059, 100118,100119
100060, 100120,100121
100061, 100122,100123
100062, 100124,100125
100063, 100126,100127
100064, 100128,100129
101890, 101980,101981
101891, 101982,101983
101892, 101984,101985
101893, 101986,101987
101894, 101988,101989
101895, 101990,101991
101896, 101992,101993
101897, 101994,101995
101898, 101996,101997
101899, 101998,101999
101900, 102000,102001
101901, 102002,102003
101902, 102004,102005
101903, 102006,102007
101904, 102008,102009
101905, 102010,102011
101906, 102012,102013
101907, 102014,102015
101908, 102016,102017
101909, 102018,102019
101910, 102020,102021
101911, 102022,102023
101912, 102024,102025
101913, 102026,102027
101914, 102028,102029
101915, 102030,102031
101916, 102032,102033
101917, 102034,102035
101918, 102036,102037
101919, 102038,102039
101920, 102040,102041
101921, 102042,102043
101922, 102044,102045
101923, 102046,102047
101924, 102048,102049
101925, 102050,102051
101926, 102052,102053
101927, 102054,102055
101928, 102056,102057
101929, 102058,102059
101930, 102060,102061
101931, 102062,102063
101932, 102064,102065
101933, 102066,102067
101934, 102068,102069
101935, 102070,102071
101936, 102072,102073
101937, 102074,102075
101938, 102076,102077
101939, 102078,102079
101940, 102080,102081
101941, 102082,102083
101942, 102084,102085
101943, 102086,102087
101944, 102088,102089
101945, 102090,102091
101946, 102092,102093
101947, 102094,102095
101948, 102096,102097
101949, 102098,102099
101950, 102100,102101
101951, 102102,102103
101952, 102104,102105
101953, 102106,102107
101954, 102108,102109
101955, 102110,102111
101956, 102112,102113
101957, 102114,102115
101958, 102116,102117
101959, 102118,102119
101960, 102120,102121
101961, 102122,102123
101962, 102124,102125
101963, 102126,102127
101964, 102128,102129
101965, 102130,102131
101966, 102132,102133
101967, 102134,102135
104093, 104286,104287
104094, 104288,104289
104095, 104290,104291
104096, 104292,104293
104097, 104294,104295
104098, 104296,104297
104099, 104298,104299
104100, 104300,104301
104101, 104302,104303
104102, 104304,104305
104103, 104306,104307
104104, 104308,104309
104105, 104310,104311
104106, 104312,104313
104107, 104314,104315
104108, 104316,104317
104109, 104318,104319
104110, 104320,104321
104111, 104322,104323
104112, 104324,104325
104113, 104326,104327
104114, 104328,104329
104115, 104330,104331
104116, 104332,104333
104117, 104334,104335
104118, 104336,104337
104119, 104338,104339
104120, 104340,104341
104121, 104342,104343
104122, 104344,104345
104123, 104346,104347
104124, 104348,104349
104125, 104350,104351
104126, 104352,104353
104127, 104354,104355
104128, 104356,104357
104129, 104358,104359
104130, 104360,104361
104131, 104362,104363
104132, 104364,104365
104133, 104366,104367
104134, 104368,104369
104135, 104370,104371
104136, 104372,104373
104137, 104374,104375
104138, 104376,104377
104139, 104378,104379
104140, 104380,104381
104141, 104382,104383
104142, 104384,104385
104143, 104386,104387
104144, 104388,104389
104145, 104390,104391
104146, 104392,104393
104147, 104394,104395
104148, 104396,104397
104149, 104398,104399
104150, 104400,104401
104151, 104402,104403
104152, 104404,104405
104153, 104406,104407
104154, 104408,104409
104155, 104410,104411
104156, 104412,104413
104157, 104414,104415
104158, 104416,104417
104159, 104418,104419
104160, 104420,104421
104161, 104422,104423
104162, 104424,104425
104163, 104426,104427
104164, 104428,104429
104165, 104430,104431
104166, 104432,104433
104167, 104434,104435
104168, 104436,104437
104169, 104438,104439
104170, 104440,104441
104171, 104442,104443
104172, 104444,104445
104173, 104446,104447
104174, 104448,104449
104175, 104450,104451
104176, 104452,104453
104177, 104454,104455
104178, 104456,104457
104179, 104458,104459
104180, 104460,104461
104181, 104462,104463
104182, 104464,104465
104183, 104466,104467
*Element, type=T3D2, elset=EMBMESH_FIBERS_T90
100065, 100130,100131
100066, 100131,100132
100067, 100132,100133
100068, 100133,100134
100069, 100134,100135
100070, 100135,100136
100071, 100136,100137
100072, 100137,100138
100073, 100138,100139
100074, 100139,100140
100075, 100140,100141
100076, 100141,100142
100077, 100142,100143
100078, 100143,100144
100079, 100144,100145
100080, 100145,100146
100081, 100146,100147
100082, 100147,100148
100083, 100148,100149
100084, 100149,100150
100085, 100150,100151
100086, 100151,100152
100087, 100152,100153
100088, 100153,100154
100089, 100154,100155
100090, 100155,100156
100091, 100156,100157
100092, 100157,100158
100093, 100158,100159
100094, 100159,100160
100095, 100160,100161
100096, 100161,100162
100097, 100162,100163
100098, 100163,100164
100099, 100164,100165
100100, 100165,100166
100101, 100166,100167
100102, 100167,100168
100103, 100168,100169
100104, 100169,100170
100105, 100170,100171
100106, 100171,100172
100107, 100172,100173
100108, 100173,100174
100109, 100174,100175
100110, 100175,100176
100111, 100176,100177
100112, 100177,100178
100113, 100178,100179
100114, 100179,100180
100115, 100180,100181
100116, 100181,100182
100117, 100182,100183
100118, 100183,100184
100119, 100184,100185
100120, 100185,100186
100121, 100186,100187
100122, 100187,100188
100123, 100188,100189
100124, 100189,100190
100125, 100190,100191
100126, 100191,100192
100127, 100192,100193
100128, 100193,100194
100129, 100194,100195
100130, 100195,100196
100131, 100196,100197
100132, 100197,100198
100133, 100198,100199
100134, 100199,100200
100135, 100200,100201
100136, 100201,100202
100137, 100202,100203
100138, 100204,100205
100139, 100205,100206
100140, 100206,100207
100141, 100207,100208
100142, 100208,100209
100143, 100209,100210
100144, 100210,100211
100145, 100211,100212
100146, 100212,100213
100147, 100213,100214
100148, 100214,100215
100149, 100215,100216
100150, 100216,100217
100151, 100217,100218
100152, 100218,100219
100153, 100219,100220
100154, 100220,100221
100155, 100221,100222
100156, 100222,100223
100157, 100223,100224
100158, 100224,100225
100159, 100225,100226
100160, 100226,100227
100161, 100227,100228
100162, 100228,100229
100163, 100229,100230
100164, 100230,100231
100165, 100231,100232
100166, 100232,100233
100167, 100233,100234
100168, 100234,100235
100169, 100235,100236
100170, 100236,100237
100171, 100237,100238
100172, 100238,100239
100173, 100239,100240
100174, 100240,100241
100175, 100241,100242
100176, 100242,100243
100177, 100243,100244
100178, 100244,100245
100179, 100245,100246
100180, 100246,100247
100181, 100247,100248
100182, 100248,100249
100183, 100249,100250
100184, 100250,100251
100185, 100251,100252
100186, 100252,100253
100187, 100253,100254
100188, 100254,100255
100189, 100255,100256
100190, 100256,100257
100191, 100257,100258
100192, 100258,100259
100193, 100259,100260
100194, 100260,100261
100195, 100261,100262
100196, 100262,100263
100197, 100263,100264
100198, 100264,100265
100199, 100265,100266
100200, 100266,100267
100201, 100267,100268
100202, 100268,100269
100203, 100269,100270
100204, 100270,100271
100205, 100271,100272
100206, 100272,100273
100207, 100273,100274
100208, 100274,100275
100209, 100275,100276
100210, 100276,100277
100211, 100278,100279
100212, 100279,100280
100213, 100280,100281
100214, 100281,100282
100215, 100282,100283
100216, 100283,100284
100217, 100284,100285
100218, 100285,100286
100219, 100286,100287
100220, 100287,100288
100221, 100288,100289
100222, 100289,100290
100223, 100290,100291
100224, 100291,100292
100225, 100292,100293
100226, 100293,100294
100227, 100294,100295
100228, 100295,100296
100229, 100296,100297
100230, 100297,100298
100231, 100298,100299
100232, 100299,100300
100233, 100300,100301
100234, 100301,100302
100235, 100302,100303
100236, 100303,100304
100237, 100304,100305
100238, 100305,100306
100239, 100306,100307
100240, 100307,100308
100241, 100308,100309
100242, 100309,100310
100243, 100310,100311
100244, 100311,100312
100245, 100312,100313
100246, 100313,100314
100247, 100314,100315
100248, 100315,100316
100249, 100316,100317
100250, 100317,100318
100251, 100318,100319
100252, 100319,100320
100253, 100320,100321
100254, 100321,100322
100255, 100322,100323
100256, 100323,100324
100257, 100324,100325
100258, 100325,100326
100259, 100326,100327
100260, 100327,100328
100261, 100328,100329
100262, 100329,100330
100263, 100330,100331
100264, 100331,100332
100265, 100332,100333
100266, 100333,100334
100267, 100334,100335
100268, 100335,100336
100269, 100336,100337
100270, 100337,100338
100271, 100338,100339
100272, 100339,100340
100273, 100340,100341
100274, 100341,100342
100275, 100342,100343
100276, 100343,100344
100277, 100344,100345
100278, 100345,100346
100279, 100346,100347
100280, 100347,100348
100281, 100348,100349
100282, 100349,100350
100283, 100350,100351
100284, 100352,100353
100285, 100353,100354
100286, 100354,100355
100287, 100355,100356
100288, 100356,100357
100289, 100357,100358
100290, 100358,100359
100291, 100359,100360
100292, 100360,100361
100293, 100361,100362
100294, 100362,100363
100295, 100363,100364
100296, 100364,100365
100297, 100365,100366
100298, 100366,100367
100299, 100367,100368
100300, 100368,100369
100301, 100369,100370
100302, 100370,100371
100303, 100371,100372
100304, 100372,100373
100305, 100373,100374
100306, 100374,100375
100307, 100375,100376
100308, 100376,100377
100309, 100377,100378
100310, 100378,100379
100311, 100379,100380
100312, 100380,100381
100313, 100381,100382
100314, 100382,100383
100315, 100383,100384
100316, 100384,100385
100317, 100385,100386
100318, 100386,100387
100319, 100387,100388
100320, 100388,100389
100321, 100389,100390
100322, 100390,100391
100323, 100391,100392
100324, 100392,100393
100325, 100393,100394
100326, 100394,100395
100327, 100395,100396
100328, 100396,100397
100329, 100397,100398
100330, 100398,100399
100331, 100399,100400
100332, 100400,100401
100333, 100401,100402
100334, 100402,100403
100335, 100403,100404
100336, 100404,100405
100337, 100405,100406
100338, 100406,100407
100339, 100407,100408
100340, 100408,100409
100341, 100409,100410
100342, 100410,100411
100343, 100411,100412
100344, 100412,100413
100345, 100413,100414
100346, 100414,100415
100347, 100415,100416
100348, 100416,100417
100349, 100417,100418
100350, 100418,100419
100351, 100419,100420
100352, 100420,100421
100353, 100421,100422
100354, 100422,100423
100355, 100423,100424
100356, 100424,100425
100357, 100426,100427
100358, 100427,100428
100359, 100428,100429
100360, 100429,100430
100361, 100430,100431
100362, 100431,100432
100363, 100432,100433
100364, 100433,100434
100365, 100434,100435
100366, 100435,100436
100367, 100436,100437
100368, 100437,100438
100369, 100438,100439
100370, 100439,100440
100371, 100440,100441
100372, 100441,100442
100373, 100442,100443
100374, 100443,100444
100375, 100444,100445
100376, 100445,100446
100377, 100446,100447
100378, 100447,100448
100379, 100448,100449
100380, 100449,100450
100381, 100450,100451
100382, 100451,100452
100383, 100452,100453
100384, 100453,100454
100385, 100454,100455
100386, 100455,100456
100387, 100456,100457
100388, 100457,100458
100389, 100458,100459
100390, 100459,100460
100391, 100460,100461
100392, 100461,100462
100393, 100462,100463
100394, 100463,100464
100395, 100464,100465
100396, 100465,100466
100397, 100466,100467
100398, 100467,100468
100399, 100468,100469
100400, 100469,100470
100401, 100470,100471
100402, 100471,100472
100403, 100472,100473
100404, 100473,100474
100405, 100474,100475
100406, 100475,100476
100407, 100476,100477
100408, 100477,100478
100409, 100478,100479
100410, 100479,100480
100411, 100480,100481
100412, 100481,100482
100413, 100482,100483
100414, 100483,100484
100415, 100484,100485
100416, 100485,100486
100417, 100486,100487
100418, 100487,100488
100419, 100488,100489
100420, 100489,100490
100421, 100490,100491
100422, 100491,100492
100423, 100492,100493
100424, 100493,100494
100425, 100494,100495
100426, 100495,100496
100427, 100496,100497
100428, 100497,100498
100429, 100498,100499
100430, 100500,100501
100431, 100501,100502
100432, 100502,100503
100433, 100503,100504
100434, 100504,100505
100435, 100505,100506
100436, 100506,100507
100437, 100507,100508
100438, 100508,100509
100439, 100509,100510
100440, 100510,100511
100441, 100511,100512
100442, 100512,100513
100443, 100513,100514
100444, 100514,100515
100445, 100515,100516
100446, 100516,100517
100447, 100517,100518
100448, 100518,100519
100449, 100519,100520
100450, 100520,100521
100451, 100521,100522
100452, 100522,100523
100453, 100523,100524
100454, 100524,100525
100455, 100525,100526
100456, 100526,100527
100457, 100527,100528
100458, 100528,100529
100459, 100529,100530
100460, 100530,100531
100461, 100531,100532
100462, 100532,100533
100463, 100533,100534
100464, 100534,100535
100465, 100535,100536
100466, 100536,100537
100467, 100537,100538
100468, 100538,100539
100469, 100539,100540
100470, 100540,100541
100471, 100541,100542
100472, 100542,100543
100473, 100543,100544
100474, 100544,100545
100475, 100545,100546
100476, 100546,100547
100477, 100547,100548
100478, 100548,100549
100479, 100549,100550
100480, 100550,100551
100481, 100551,100552
100482, 100552,100553
100483, 100553,100554
100484, 100554,100555
100485, 100555,100556
100486, 100556,100557
100487, 100557,100558
100488, 100558,100559
100489, 100559,100560
100490, 100560,100561
100491, 100561,100562
100492, 100562,100563
100493, 100563,100564
100494, 100564,100565
100495, 100565,100566
100496, 100566,100567
100497, 100567,100568
100498, 100568,100569
100499, 100569,100570
100500, 100570,100571
100501, 100571,100572
100502, 100572,100573
100503, 100574,100575
100504, 100575,100576
100505, 100576,100577
100506, 100577,100578
100507, 100578,100579
100508, 100579,100580
100509, 100580,100581
100510, 100581,100582
100511, 100582,100583
100512, 100583,100584
100513, 100584,100585
100514, 100585,100586
100515, 100586,100587
100516, 100587,100588
100517, 100588,100589
100518, 100589,100590
100519, 100590,100591
100520, 100591,100592
100521, 100592,100593
100522, 100593,100594
100523, 100594,100595
100524, 100595,100596
100525, 100596,100597
100526, 100597,100598
100527, 100598,100599
100528, 100599,100600
100529, 100600,100601
100530, 100601,100602
100531, 100602,100603
100532, 100603,100604
100533, 100604,100605
100534, 100605,100606
100535, 100606,100607
100536, 100607,100608
100537, 100608,100609
100538, 100609,100610
100539, 100610,100611
100540, 100611,100612
100541, 100612,100613
100542, 100613,100614
100543, 100614,100615
100544, 100615,100616
100545, 100616,100617
100546, 100617,100618
100547, 100618,100619
100548, 100619,100620
100549, 100620,100621
100550, 100621,100622
100551, 100622,100623
100552, 100623,100624
100553, 100624,100625
100554, 100625,100626
100555, 100626,100627
100556, 100627,100628
100557, 100628,100629
100558, 100629,100630
100559, 100630,100631
100560, 100631,100632
100561, 100632,100633
100562, 100633,100634
100563, 100634,100635
100564, 100635,100636
100565, 100636,100637
100566, 100637,100638
100567, 100638,100639
100568, 100639,100640
100569, 100640,100641
100570, 100641,100642
100571, 100642,100643
100572, 100643,100644
100573, 100644,100645
100574, 100645,100646
100575, 100646,100647
100576, 100648,100649
100577, 100649,100650
100578, 100650,100651
100579, 100651,100652
100580, 100652,100653
100581, 100653,100654
100582, 100654,100655
100583, 100655,100656
100584, 100656,100657
100585, 100657,100658
100586, 100658,100659
100587, 100659,100660
100588, 100660,100661
100589, 100661,100662
100590, 100662,100663
100591, 100663,100664
100592, 100664,100665
100593, 100665,100666
100594, 100666,100667
100595, 100667,100668
100596, 100668,100669
100597, 100669,100670
100598, 100670,100671
100599, 100671,100672
100600, 100672,100673
100601, 100673,100674
100602, 100674,100675
100603, 100675,100676
100604, 100676,100677
100605, 100677,100678
100606, 100678,100679
100607, 100679,100680
100608, 100680,100681
100609, 100681,100682
100610, 100682,100683
100611, 100683,100684
100612, 100684,100685
100613, 100685,100686
100614, 100686,100687
100615, 100687,100688
100616, 100688,100689
100617, 100689,100690
100618, 100690,100691
100619, 100691,100692
100620, 100692,100693
100621, 100693,100694
100622, 100694,100695
100623, 100695,100696
100624, 100696,100697
100625, 100697,100698
100626, 100698,100699
100627, 100699,100700
100628, 100700,100701
100629, 100701,100702
100630, 100702,100703
100631, 100703,100704
100632, 100704,100705
100633, 100705,100706
100634, 100706,100707
100635, 100707,100708
100636, 100708,100709
100637, 100709,100710
100638, 100710,100711
100639, 100711,100712
100640, 100712,100713
100641, 100713,100714
100642, 100714,100715
100643, 100715,100716
100644, 100716,100717
100645, 100717,100718
100646, 100718,100719
100647, 100719,100720
100648, 100720,100721
100649, 100722,100723
100650, 100723,100724
100651, 100724,100725
100652, 100725,100726
100653, 100726,100727
100654, 100727,100728
100655, 100728,100729
100656, 100729,100730
100657, 100730,100731
100658, 100731,100732
100659, 100732,100733
100660, 100733,100734
100661, 100734,100735
100662, 100735,100736
100663, 100736,100737
100664, 100737,100738
100665, 100738,100739
100666, 100739,100740
100667, 100740,100741
100668, 100741,100742
100669, 100742,100743
100670, 100743,100744
100671, 100744,100745
100672, 100745,100746
100673, 100746,100747
100674, 100747,100748
100675, 100748,100749
100676, 100749,100750
100677, 100750,100751
100678, 100751,100752
100679, 100752,100753
100680, 100753,100754
100681, 100754,100755
100682, 100755,100756
100683, 100756,100757
100684, 100757,100758
100685, 100758,100759
100686, 100759,100760
100687, 100760,100761
100688, 100761,100762
100689, 100762,100763
100690, 100763,100764
100691, 100764,100765
100692, 100765,100766
100693, 100766,100767
100694, 100767,100768
100695, 100768,100769
100696, 100769,100770
100697, 100770,100771
100698, 100771,100772
100699, 100772,100773
100700, 100773,100774
100701, 100774,100775
100702, 100775,100776
100703, 100776,100777
100704, 100777,100778
100705, 100778,100779
100706, 100779,100780
100707, 100780,100781
100708, 100781,100782
100709, 100782,100783
100710, 100783,100784
100711, 100784,100785
100712, 100785,100786
100713, 100786,100787
100714, 100787,100788
100715, 100788,100789
100716, 100789,100790
100717, 100790,100791
100718, 100791,100792
100719, 100792,100793
100720, 100793,100794
100721, 100794,100795
100722, 100796,100797
100723, 100797,100798
100724, 100798,100799
100725, 100799,100800
100726, 100800,100801
100727, 100801,100802
100728, 100802,100803
100729, 100803,100804
100730, 100804,100805
100731, 100805,100806
100732, 100806,100807
100733, 100807,100808
100734, 100808,100809
100735, 100809,100810
100736, 100810,100811
100737, 100811,100812
100738, 100812,100813
100739, 100813,100814
100740, 100814,100815
100741, 100815,100816
100742, 100816,100817
100743, 100817,100818
100744, 100818,100819
100745, 100819,100820
100746, 100820,100821
100747, 100821,100822
100748, 100822,100823
100749, 100823,100824
100750, 100824,100825
100751, 100825,100826
100752, 100826,100827
100753, 100827,100828
100754, 100828,100829
100755, 100829,100830
100756, 100830,100831
100757, 100831,100832
100758, 100832,100833
100759, 100833,100834
100760, 100834,100835
100761, 100835,100836
100762, 100836,100837
100763, 100837,100838
100764, 100838,100839
100765, 100839,100840
100766, 100840,100841
100767, 100841,100842
100768, 100842,100843
100769, 100843,100844
100770, 100844,100845
100771, 100845,100846
100772, 100846,100847
100773, 100847,100848
100774, 100848,100849
100775, 100849,100850
100776, 100850,100851
100777, 100851,100852
100778, 100852,100853
100779, 100853,100854
100780, 100854,100855
100781, 100855,100856
100782, 100856,100857
100783, 100857,100858
100784, 100858,100859
100785, 100859,100860
100786, 100860,100861
100787, 100861,100862
100788, 100862,100863
100789, 100863,100864
100790, 100864,100865
100791, 100865,100866
100792, 100866,100867
100793, 100867,100868
100794, 100868,100869
100795, 100870,100871
100796, 100871,100872
100797, 100872,100873
100798, 100873,100874
100799, 100874,100875
100800, 100875,100876
100801, 100876,100877
100802, 100877,100878
100803, 100878,100879
100804, 100879,100880
100805, 100880,100881
100806, 100881,100882
100807, 100882,100883
100808, 100883,100884
100809, 100884,100885
100810, 100885,100886
100811, 100886,100887
100812, 100887,100888
100813, 100888,100889
100814, 100889,100890
100815, 100890,100891
100816, 100891,100892
100817, 100892,100893
100818, 100893,100894
100819, 100894,100895
100820, 100895,100896
100821, 100896,100897
100822, 100897,100898
100823, 100898,100899
100824, 100899,100900
100825, 100900,100901
100826, 100901,100902
100827, 100902,100903
100828, 100903,100904
100829, 100904,100905
100830, 100905,100906
100831, 100906,100907
100832, 100907,100908
100833, 100908,100909
100834, 100909,100910
100835, 100910,100911
100836, 100911,100912
100837, 100912,100913
100838, 100913,100914
100839, 100914,100915
100840, 100915,100916
100841, 100916,100917
100842, 100917,100918
100843, 100918,100919
100844, 100919,100920
100845, 100920,100921
100846, 100921,100922
100847, 100922,100923
100848, 100923,100924
100849, 100924,100925
100850, 100925,100926
100851, 100926,100927
100852, 100927,100928
100853, 100928,100929
100854, 100929,100930
100855, 100930,100931
100856, 100931,100932
100857, 100932,100933
100858, 100933,100934
100859, 100934,100935
100860, 100935,100936
100861, 100936,100937
100862, 100937,100938
100863, 100938,100939
100864, 100939,100940
100865, 100940,100941
100866, 100941,100942
100867, 100942,100943
100868, 100944,100945
100869, 100945,100946
100870, 100946,100947
100871, 100947,100948
100872, 100948,100949
100873, 100949,100950
100874, 100950,100951
100875, 100951,100952
100876, 100952,100953
100877, 100953,100954
100878, 100954,100955
100879, 100955,100956
100880, 100956,100957
100881, 100957,100958
100882, 100958,100959
100883, 100959,100960
100884, 100960,100961
100885, 100961,100962
100886, 100962,100963
100887, 100963,100964
100888, 100964,100965
100889, 100965,100966
100890, 100966,100967
100891, 100967,100968
100892, 100968,100969
100893, 100969,100970
100894, 100970,100971
100895, 100971,100972
100896, 100972,100973
100897, 100973,100974
100898, 100974,100975
100899, 100975,100976
100900, 100976,100977
100901, 100977,100978
100902, 100978,100979
100903, 100979,100980
100904, 100980,100981
100905, 100981,100982
100906, 100982,100983
100907, 100983,100984
100908, 100984,100985
100909, 100985,100986
100910, 100986,100987
100911, 100987,100988
100912, 100988,100989
100913, 100989,100990
100914, 100990,100991
100915, 100991,100992
100916, 100992,100993
100917, 100993,100994
100918, 100994,100995
100919, 100995,100996
100920, 100996,100997
100921, 100997,100998
100922, 100998,100999
100923, 100999,101000
100924, 101000,101001
100925, 101001,101002
100926, 101002,101003
100927, 101003,101004
100928, 101004,101005
100929, 101005,101006
100930, 101006,101007
100931, 101007,101008
100932, 101008,101009
100933, 101009,101010
100934, 101010,101011
100935, 101011,101012
100936, 101012,101013
100937, 101013,101014
100938, 101014,101015
100939, 101015,101016
100940, 101016,101017
100941, 101018,101019
100942, 101019,101020
100943, 101020,101021
100944, 101021,101022
100945, 101022,101023
100946, 101023,101024
100947, 101024,101025
100948, 101025,101026
100949, 101026,101027
100950, 101027,101028
100951, 101028,101029
100952, 101029,101030
100953, 101030,101031
100954, 101031,101032
100955, 101032,101033
100956, 101033,101034
100957, 101034,101035
100958, 101035,101036
100959, 101036,101037
100960, 101037,101038
100961, 101038,101039
100962, 101039,101040
100963, 101040,101041
100964, 101041,101042
100965, 101042,101043
100966, 101043,101044
100967, 101044,101045
100968, 101045,101046
100969, 101046,101047
100970, 101047,101048
100971, 101048,101049
100972, 101049,101050
100973, 101050,101051
100974, 101051,101052
100975, 101052,101053
100976, 101053,101054
100977, 101054,101055
100978, 101055,101056
100979, 101056,101057
100980, 101057,101058
100981, 101058,101059
100982, 101059,101060
100983, 101060,101061
100984, 101061,101062
100985, 101062,101063
100986, 101063,101064
100987, 101064,101065
100988, 101065,101066
100989, 101066,101067
100990, 101067,101068
100991, 101068,101069
100992, 101069,101070
100993, 101070,101071
100994, 101071,101072
100995, 101072,101073
100996, 101073,101074
100997, 101074,101075
100998, 101075,101076
100999, 101076,101077
101000, 101077,101078
101001, 101078,101079
101002, 101079,101080
101003, 101080,101081
101004, 101081,101082
101005, 101082,101083
101006, 101083,101084
101007, 101084,101085
101008, 101085,101086
101009, 101086,101087
101010, 101087,101088
101011, 101088,101089
101012, 101089,101090
101013, 101090,101091
101014, 101092,101093
101015, 101093,101094
101016, 101094,101095
101017, 101095,101096
101018, 101096,101097
101019, 101097,101098
101020, 101098,101099
101021, 101099,101100
101022, 101100,101101
101023, 101101,101102
101024, 101102,101103
101025, 101103,101104
101026, 101104,101105
101027, 101105,101106
101028, 101106,101107
101029, 101107,101108
101030, 101108,101109
101031, 101109,101110
101032, 101110,101111
101033, 101111,101112
101034, 101112,101113
101035, 101113,101114
101036, 101114,101115
101037, 101115,101116
101038, 101116,101117
101039, 101117,101118
101040, 101118,101119
101041, 101119,101120
101042, 101120,101121
101043, 101121,101122
101044, 101122,101123
101045, 101123,101124
101046, 101124,101125
101047, 101125,101126
101048, 101126,101127
101049, 101127,101128
101050, 101128,101129
101051, 101129,101130
101052, 101130,101131
101053, 101131,101132
101054, 101132,101133
101055, 101133,101134
101056, 101134,101135
101057, 101135,101136
101058, 101136,101137
101059, 101137,101138
101060, 101138,101139
101061, 101139,101140
101062, 101140,101141
101063, 101141,101142
101064, 101142,101143
101065, 101143,101144
101066, 101144,101145
101067, 101145,101146
101068, 101146,101147
101069, 101147,101148
101070, 101148,101149
101071, 101149,101150
101072, 101150,101151
101073, 101151,101152
101074, 101152,101153
101075, 101153,101154
101076, 101154,101155
101077, 101155,101156
101078, 101156,101157
101079, 101157,101158
101080, 101158,101159
101081, 101159,101160
101082, 101160,101161
101083, 101161,101162
101084, 101162,101163
101085, 101163,101164
101086, 101164,101165
101087, 101166,101167
101088, 101167,101168
101089, 101168,101169
101090, 101169,101170
101091, 101170,101171
101092, 101171,101172
101093, 101172,101173
101094, 101173,101174
101095, 101174,101175
101096, 101175,101176
101097, 101176,101177
101098, 101177,101178
101099, 101178,101179
101100, 101179,101180
101101, 101180,101181
101102, 101181,101182
101103, 101182,101183
101104, 101183,101184
101105, 101184,101185
101106, 101185,101186
101107, 101186,101187
101108, 101187,101188
101109, 101188,101189
101110, 101189,101190
101111, 101190,101191
101112, 101191,101192
101113, 101192,101193
101114, 101193,101194
101115, 101194,101195
101116, 101195,101196
101117, 101196,101197
101118, 101197,101198
101119, 101198,101199
101120, 101199,101200
101121, 101200,101201
101122, 101201,101202
101123, 101202,101203
101124, 101203,101204
101125, 101204,101205
101126, 101205,101206
101127, 101206,101207
101128, 101207,101208
101129, 101208,101209
101130, 101209,101210
101131, 101210,101211
101132, 101211,101212
101133, 101212,101213
101134, 101213,101214
101135, 101214,101215
101136, 101215,101216
101137, 101216,101217
101138, 101217,101218
101139, 101218,101219
101140, 101219,101220
101141, 101220,101221
101142, 101221,101222
101143, 101222,101223
101144, 101223,101224
101145, 101224,101225
101146, 101225,101226
101147, 101226,101227
101148, 101227,101228
101149, 101228,101229
101150, 101229,101230
101151, 101230,101231
101152, 101231,101232
101153, 101232,101233
101154, 101233,101234
101155, 101234,101235
101156, 101235,101236
101157, 101236,101237
101158, 101237,101238
101159, 101238,101239
101160, 101240,101241
101161, 101241,101242
101162, 101242,101243
101163, 101243,101244
101164, 101244,101245
101165, 101245,101246
101166, 101246,101247
101167, 101247,101248
101168, 101248,101249
101169, 101249,101250
101170, 101250,101251
101171, 101251,101252
101172, 101252,101253
101173, 101253,101254
101174, 101254,101255
101175, 101255,101256
101176, 101256,101257
101177, 101257,101258
101178, 101258,101259
101179, 101259,101260
101180, 101260,101261
101181, 101261,101262
101182, 101262,101263
101183, 101263,101264
101184, 101264,101265
101185, 101265,101266
101186, 101266,101267
101187, 101267,101268
101188, 101268,101269
101189, 101269,101270
101190, 101270,101271
101191, 101271,101272
101192, 101272,101273
101193, 101273,101274
101194, 101274,101275
101195, 101275,101276
101196, 101276,101277
101197, 101277,101278
101198, 101278,101279
101199, 101279,101280
101200, 101280,101281
101201, 101281,101282
101202, 101282,101283
101203, 101283,101284
101204, 101284,101285
101205, 101285,101286
101206, 101286,101287
101207, 101287,101288
101208, 101288,101289
101209, 101289,101290
101210, 101290,101291
101211, 101291,101292
101212, 101292,101293
101213, 101293,101294
101214, 101294,101295
101215, 101295,101296
101216, 101296,101297
101217, 101297,101298
101218, 101298,101299
101219, 101299,101300
101220, 101300,101301
101221, 101301,101302
101222, 101302,101303
101223, 101303,101304
101224, 101304,101305
101225, 101305,101306
101226, 101306,101307
101227, 101307,101308
101228, 101308,101309
101229, 101309,101310
101230, 101310,101311
101231, 101311,101312
101232, 101312,101313
101233, 101314,101315
101234, 101315,101316
101235, 101316,101317
101236, 101317,101318
101237, 101318,101319
101238, 101319,101320
101239, 101320,101321
101240, 101321,101322
101241, 101322,101323
101242, 101323,101324
101243, 101324,101325
101244, 101325,101326
101245, 101326,101327
101246, 101327,101328
101247, 101328,101329
101248, 101329,101330
101249, 101330,101331
101250, 101331,101332
101251, 101332,101333
101252, 101333,101334
101253, 101334,101335
101254, 101335,101336
101255, 101336,101337
101256, 101337,101338
101257, 101338,101339
101258, 101339,101340
101259, 101340,101341
101260, 101341,101342
101261, 101342,101343
101262, 101343,101344
101263, 101344,101345
101264, 101345,101346
101265, 101346,101347
101266, 101347,101348
101267, 101348,101349
101268, 101349,101350
101269, 101350,101351
101270, 101351,101352
101271, 101352,101353
101272, 101353,101354
101273, 101354,101355
101274, 101355,101356
101275, 101356,101357
101276, 101357,101358
101277, 101358,101359
101278, 101359,101360
101279, 101360,101361
101280, 101361,101362
101281, 101362,101363
101282, 101363,101364
101283, 101364,101365
101284, 101365,101366
101285, 101366,101367
101286, 101367,101368
101287, 101368,101369
101288, 101369,101370
101289, 101370,101371
101290, 101371,101372
101291, 101372,101373
101292, 101373,101374
101293, 101374,101375
101294, 101375,101376
101295, 101376,101377
101296, 101377,101378
101297, 101378,101379
101298, 101379,101380
101299, 101380,101381
101300, 101381,101382
101301, 101382,101383
101302, 101383,101384
101303, 101384,101385
101304, 101385,101386
101305, 101386,101387
101306, 101388,101389
101307, 101389,101390
101308, 101390,101391
101309, 101391,101392
101310, 101392,101393
101311, 101393,101394
101312, 101394,101395
101313, 101395,101396
101314, 101396,101397
101315, 101397,101398
101316, 101398,101399
101317, 101399,101400
101318, 101400,101401
101319, 101401,101402
101320, 101402,101403
101321, 101403,101404
101322, 101404,101405
101323, 101405,101406
101324, 101406,101407
101325, 101407,101408
101326, 101408,101409
101327, 101409,101410
101328, 101410,101411
101329, 101411,101412
101330, 101412,101413
101331, 101413,101414
101332, 101414,101415
101333, 101415,101416
101334, 101416,101417
101335, 101417,101418
101336, 101418,101419
101337, 101419,101420
101338, 101420,101421
101339, 101421,101422
101340, 101422,101423
101341, 101423,101424
101342, 101424,101425
101343, 101425,101426
101344, 101426,101427
101345, 101427,101428
101346, 101428,101429
101347, 101429,101430
101348, 101430,101431
101349, 101431,101432
101350, 101432,101433
101351, 101433,101434
101352, 101434,101435
101353, 101435,101436
101354, 101436,101437
101355, 101437,101438
101356, 101438,101439
101357, 101439,101440
101358, 101440,101441
101359, 101441,101442
101360, 101442,101443
101361, 101443,101444
101362, 101444,101445
101363, 101445,101446
101364, 101446,101447
101365, 101447,101448
101366, 101448,101449
101367, 101449,101450
101368, 101450,101451
101369, 101451,101452
101370, 101452,101453
101371, 101453,101454
101372, 101454,101455
101373, 101455,101456
101374, 101456,101457
101375, 101457,101458
101376, 101458,101459
101377, 101459,101460
101378, 101460,101461
101379, 101462,101463
101380, 101463,101464
101381, 101464,101465
101382, 101465,101466
101383, 101466,101467
101384, 101467,101468
101385, 101468,101469
101386, 101469,101470
101387, 101470,101471
101388, 101471,101472
101389, 101472,101473
101390, 101473,101474
101391, 101474,101475
101392, 101475,101476
101393, 101476,101477
101394, 101477,101478
101395, 101478,101479
101396, 101479,101480
101397, 101480,101481
101398, 101481,101482
101399, 101482,101483
101400, 101483,101484
101401, 101484,101485
101402, 101485,101486
101403, 101486,101487
101404, 101487,101488
101405, 101488,101489
101406, 101489,101490
101407, 101490,101491
101408, 101491,101492
101409, 101492,101493
101410, 101493,101494
101411, 101494,101495
101412, 101495,101496
101413, 101496,101497
101414, 101497,101498
101415, 101498,101499
101416, 101499,101500
101417, 101500,101501
101418, 101501,101502
101419, 101502,101503
101420, 101503,101504
101421, 101504,101505
101422, 101505,101506
101423, 101506,101507
101424, 101507,101508
101425, 101508,101509
101426, 101509,101510
101427, 101510,101511
101428, 101511,101512
101429, 101512,101513
101430, 101513,101514
101431, 101514,101515
101432, 101515,101516
101433, 101516,101517
101434, 101517,101518
101435, 101518,101519
101436, 101519,101520
101437, 101520,101521
101438, 101521,101522
101439, 101522,101523
101440, 101523,101524
101441, 101524,101525
101442, 101525,101526
101443, 101526,101527
101444, 101527,101528
101445, 101528,101529
101446, 101529,101530
101447, 101530,101531
101448, 101531,101532
101449, 101532,101533
101450, 101533,101534
101451, 101534,101535
101452, 101536,101537
101453, 101537,101538
101454, 101538,101539
101455, 101539,101540
101456, 101540,101541
101457, 101541,101542
101458, 101542,101543
101459, 101543,101544
101460, 101544,101545
101461, 101545,101546
101462, 101546,101547
101463, 101547,101548
101464, 101548,101549
101465, 101549,101550
101466, 101550,101551
101467, 101551,101552
101468, 101552,101553
101469, 101553,101554
101470, 101554,101555
101471, 101555,101556
101472, 101556,101557
101473, 101557,101558
101474, 101558,101559
101475, 101559,101560
101476, 101560,101561
101477, 101561,101562
101478, 101562,101563
101479, 101563,101564
101480, 101564,101565
101481, 101565,101566
101482, 101566,101567
101483, 101567,101568
101484, 101568,101569
101485, 101569,101570
101486, 101570,101571
101487, 101571,101572
101488, 101572,101573
101489, 101573,101574
101490, 101574,101575
101491, 101575,101576
101492, 101576,101577
101493, 101577,101578
101494, 101578,101579
101495, 101579,101580
101496, 101580,101581
101497, 101581,101582
101498, 101582,101583
101499, 101583,101584
101500, 101584,101585
101501, 101585,101586
101502, 101586,101587
101503, 101587,101588
101504, 101588,101589
101505, 101589,101590
101506, 101590,101591
101507, 101591,101592
101508, 101592,101593
101509, 101593,101594
101510, 101594,101595
101511, 101595,101596
101512, 101596,101597
101513, 101597,101598
101514, 101598,101599
101515, 101599,101600
101516, 101600,101601
101517, 101601,101602
101518, 101602,101603
101519, 101603,101604
101520, 101604,101605
101521, 101605,101606
101522, 101606,101607
101523, 101607,101608
101524, 101608,101609
101525, 101610,101611
101526, 101611,101612
101527, 101612,101613
101528, 101613,101614
101529, 101614,101615
101530, 101615,101616
101531, 101616,101617
101532, 101617,101618
101533, 101618,101619
101534, 101619,101620
101535, 101620,101621
101536, 101621,101622
101537, 101622,101623
101538, 101623,101624
101539, 101624,101625
101540, 101625,101626
101541, 101626,101627
101542, 101627,101628
101543, 101628,101629
101544, 101629,101630
101545, 101630,101631
101546, 101631,101632
101547, 101632,101633
101548, 101633,101634
101549, 101634,101635
101550, 101635,101636
101551, 101636,101637
101552, 101637,101638
101553, 101638,101639
101554, 101639,101640
101555, 101640,101641
101556, 101641,101642
101557, 101642,101643
101558, 101643,101644
101559, 101644,101645
101560, 101645,101646
101561, 101646,101647
101562, 101647,101648
101563, 101648,101649
101564, 101649,101650
101565, 101650,101651
101566, 101651,101652
101567, 101652,101653
101568, 101653,101654
101569, 101654,101655
101570, 101655,101656
101571, 101656,101657
101572, 101657,101658
101573, 101658,101659
101574, 101659,101660
101575, 101660,101661
101576, 101661,101662
101577, 101662,101663
101578, 101663,101664
101579, 101664,101665
101580, 101665,101666
101581, 101666,101667
101582, 101667,101668
101583, 101668,101669
101584, 101669,101670
101585, 101670,101671
101586, 101671,101672
101587, 101672,101673
101588, 101673,101674
101589, 101674,101675
101590, 101675,101676
101591, 101676,101677
101592, 101677,101678
101593, 101678,101679
101594, 101679,101680
101595, 101680,101681
101596, 101681,101682
101597, 101682,101683
101598, 101684,101685
101599, 101685,101686
101600, 101686,101687
101601, 101687,101688
101602, 101688,101689
101603, 101689,101690
101604, 101690,101691
101605, 101691,101692
101606, 101692,101693
101607, 101693,101694
101608, 101694,101695
101609, 101695,101696
101610, 101696,101697
101611, 101697,101698
101612, 101698,101699
101613, 101699,101700
101614, 101700,101701
101615, 101701,101702
101616, 101702,101703
101617, 101703,101704
101618, 101704,101705
101619, 101705,101706
101620, 101706,101707
101621, 101707,101708
101622, 101708,101709
101623, 101709,101710
101624, 101710,101711
101625, 101711,101712
101626, 101712,101713
101627, 101713,101714
101628, 101714,101715
101629, 101715,101716
101630, 101716,101717
101631, 101717,101718
101632, 101718,101719
101633, 101719,101720
101634, 101720,101721
101635, 101721,101722
101636, 101722,101723
101637, 101723,101724
101638, 101724,101725
101639, 101725,101726
101640, 101726,101727
101641, 101727,101728
101642, 101728,101729
101643, 101729,101730
101644, 101730,101731
101645, 101731,101732
101646, 101732,101733
101647, 101733,101734
101648, 101734,101735
101649, 101735,101736
101650, 101736,101737
101651, 101737,101738
101652, 101738,101739
101653, 101739,101740
101654, 101740,101741
101655, 101741,101742
101656, 101742,101743
101657, 101743,101744
101658, 101744,101745
101659, 101745,101746
101660, 101746,101747
101661, 101747,101748
101662, 101748,101749
101663, 101749,101750
101664, 101750,101751
101665, 101751,101752
101666, 101752,101753
101667, 101753,101754
101668, 101754,101755
101669, 101755,101756
101670, 101756,101757
101671, 101758,101759
101672, 101759,101760
101673, 101760,101761
101674, 101761,101762
101675, 101762,101763
101676, 101763,101764
101677, 101764,101765
101678, 101765,101766
101679, 101766,101767
101680, 101767,101768
101681, 101768,101769
101682, 101769,101770
101683, 101770,101771
101684, 101771,101772
101685, 101772,101773
101686, 101773,101774
101687, 101774,101775
101688, 101775,101776
101689, 101776,101777
101690, 101777,101778
101691, 101778,101779
101692, 101779,101780
101693, 101780,101781
101694, 101781,101782
101695, 101782,101783
101696, 101783,101784
101697, 101784,101785
101698, 101785,101786
101699, 101786,101787
101700, 101787,101788
101701, 101788,101789
101702, 101789,101790
101703, 101790,101791
101704, 101791,101792
101705, 101792,101793
101706, 101793,101794
101707, 101794,101795
101708, 101795,101796
101709, 101796,101797
101710, 101797,101798
101711, 101798,101799
101712, 101799,101800
101713, 101800,101801
101714, 101801,101802
101715, 101802,101803
101716, 101803,101804
101717, 101804,101805
101718, 101805,101806
101719, 101806,101807
101720, 101807,101808
101721, 101808,101809
101722, 101809,101810
101723, 101810,101811
101724, 101811,101812
101725, 101812,101813
101726, 101813,101814
101727, 101814,101815
101728, 101815,101816
101729, 101816,101817
101730, 101817,101818
101731, 101818,101819
101732, 101819,101820
101733, 101820,101821
101734, 101821,101822
101735, 101822,101823
101736, 101823,101824
101737, 101824,101825
101738, 101825,101826
101739, 101826,101827
101740, 101827,101828
101741, 101828,101829
101742, 101829,101830
101743, 101830,101831
101744, 101832,101833
101745, 101833,101834
101746, 101834,101835
101747, 101835,101836
101748, 101836,101837
101749, 101837,101838
101750, 101838,101839
101751, 101839,101840
101752, 101840,101841
101753, 101841,101842
101754, 101842,101843
101755, 101843,101844
101756, 101844,101845
101757, 101845,101846
101758, 101846,101847
101759, 101847,101848
101760, 101848,101849
101761, 101849,101850
101762, 101850,101851
101763, 101851,101852
101764, 101852,101853
101765, 101853,101854
101766, 101854,101855
101767, 101855,101856
101768, 101856,101857
101769, 101857,101858
101770, 101858,101859
101771, 101859,101860
101772, 101860,101861
101773, 101861,101862
101774, 101862,101863
101775, 101863,101864
101776, 101864,101865
101777, 101865,101866
101778, 101866,101867
101779, 101867,101868
101780, 101868,101869
101781, 101869,101870
101782, 101870,101871
101783, 101871,101872
101784, 101872,101873
101785, 101873,101874
101786, 101874,101875
101787, 101875,101876
101788, 101876,101877
101789, 101877,101878
101790, 101878,101879
101791, 101879,101880
101792, 101880,101881
101793, 101881,101882
101794, 101882,101883
101795, 101883,101884
101796, 101884,101885
101797, 101885,101886
101798, 101886,101887
101799, 101887,101888
101800, 101888,101889
101801, 101889,101890
101802, 101890,101891
101803, 101891,101892
101804, 101892,101893
101805, 101893,101894
101806, 101894,101895
101807, 101895,101896
101808, 101896,101897
101809, 101897,101898
101810, 101898,101899
101811, 101899,101900
101812, 101900,101901
101813, 101901,101902
101814, 101902,101903
101815, 101903,101904
101816, 101904,101905
101817, 101906,101907
101818, 101907,101908
101819, 101908,101909
101820, 101909,101910
101821, 101910,101911
101822, 101911,101912
101823, 101912,101913
101824, 101913,101914
101825, 101914,101915
101826, 101915,101916
101827, 101916,101917
101828, 101917,101918
101829, 101918,101919
101830, 101919,101920
101831, 101920,101921
101832, 101921,101922
101833, 101922,101923
101834, 101923,101924
101835, 101924,101925
101836, 101925,101926
101837, 101926,101927
101838, 101927,101928
101839, 101928,101929
101840, 101929,101930
101841, 101930,101931
101842, 101931,101932
101843, 101932,101933
101844, 101933,101934
101845, 101934,101935
101846, 101935,101936
101847, 101936,101937
101848, 101937,101938
101849, 101938,101939
101850, 101939,101940
101851, 101940,101941
101852, 101941,101942
101853, 101942,101943
101854, 101943,101944
101855, 101944,101945
101856, 101945,101946
101857, 101946,101947
101858, 101947,101948
101859, 101948,101949
101860, 101949,101950
101861, 101950,101951
101862, 101951,101952
101863, 101952,101953
101864, 101953,101954
101865, 101954,101955
101866, 101955,101956
101867, 101956,101957
101868, 101957,101958
101869, 101958,101959
101870, 101959,101960
101871, 101960,101961
101872, 101961,101962
101873, 101962,101963
101874, 101963,101964
101875, 101964,101965
101876, 101965,101966
101877, 101966,101967
101878, 101967,101968
101879, 101968,101969
101880, 101969,101970
101881, 101970,101971
101882, 101971,101972
101883, 101972,101973
101884, 101973,101974
101885, 101974,101975
101886, 101975,101976
101887, 101976,101977
101888, 101977,101978
101889, 101978,101979
101968, 102136,102137
101969, 102137,102138
101970, 102138,102139
101971, 102139,102140
101972, 102140,102141
101973, 102141,102142
101974, 102142,102143
101975, 102143,102144
101976, 102144,102145
101977, 102145,102146
101978, 102146,102147
101979, 102147,102148
101980, 102148,102149
101981, 102149,102150
101982, 102150,102151
101983, 102151,102152
101984, 102152,102153
101985, 102153,102154
101986, 102154,102155
101987, 102155,102156
101988, 102156,102157
101989, 102157,102158
101990, 102158,102159
101991, 102159,102160
101992, 102160,102161
101993, 102161,102162
101994, 102162,102163
101995, 102163,102164
101996, 102164,102165
101997, 102165,102166
101998, 102166,102167
101999, 102167,102168
102000, 102168,102169
102001, 102169,102170
102002, 102170,102171
102003, 102171,102172
102004, 102172,102173
102005, 102173,102174
102006, 102174,102175
102007, 102175,102176
102008, 102176,102177
102009, 102177,102178
102010, 102178,102179
102011, 102179,102180
102012, 102180,102181
102013, 102181,102182
102014, 102182,102183
102015, 102183,102184
102016, 102184,102185
102017, 102185,102186
102018, 102186,102187
102019, 102187,102188
102020, 102188,102189
102021, 102189,102190
102022, 102190,102191
102023, 102191,102192
102024, 102192,102193
102025, 102193,102194
102026, 102194,102195
102027, 102195,102196
102028, 102196,102197
102029, 102197,102198
102030, 102198,102199
102031, 102199,102200
102032, 102200,102201
102033, 102201,102202
102034, 102202,102203
102035, 102203,102204
102036, 102204,102205
102037, 102205,102206
102038, 102206,102207
102039, 102207,102208
102040, 102208,102209
102041, 102209,102210
102042, 102210,102211
102043, 102211,102212
102044, 102212,102213
102045, 102213,102214
102046, 102214,102215
102047, 102215,102216
102048, 102216,102217
102049, 102217,102218
102050, 102218,102219
102051, 102219,102220
102052, 102220,102221
102053, 102222,102223
102054, 102223,102224
102055, 102224,102225
102056, 102225,102226
102057, 102226,102227
102058, 102227,102228
102059, 102228,102229
102060, 102229,102230
102061, 102230,102231
102062, 102231,102232
102063, 102232,102233
102064, 102233,102234
102065, 102234,102235
102066, 102235,102236
102067, 102236,102237
102068, 102237,102238
102069, 102238,102239
102070, 102239,102240
102071, 102240,102241
102072, 102241,102242
102073, 102242,102243
102074, 102243,102244
102075, 102244,102245
102076, 102245,102246
102077, 102246,102247
102078, 102247,102248
102079, 102248,102249
102080, 102249,102250
102081, 102250,102251
102082, 102251,102252
102083, 102252,102253
102084, 102253,102254
102085, 102254,102255
102086, 102255,102256
102087, 102256,102257
102088, 102257,102258
102089, 102258,102259
102090, 102259,102260
102091, 102260,102261
102092, 102261,102262
102093, 102262,102263
102094, 102263,102264
102095, 102264,102265
102096, 102265,102266
102097, 102266,102267
102098, 102267,102268
102099, 102268,102269
102100, 102269,102270
102101, 102270,102271
102102, 102271,102272
102103, 102272,102273
102104, 102273,102274
102105, 102274,102275
102106, 102275,102276
102107, 102276,102277
102108, 102277,102278
102109, 102278,102279
102110, 102279,102280
102111, 102280,102281
102112, 102281,102282
102113, 102282,102283
102114, 102283,102284
102115, 102284,102285
102116, 102285,102286
102117, 102286,102287
102118, 102287,102288
102119, 102288,102289
102120, 102289,102290
102121, 102290,102291
102122, 102291,102292
102123, 102292,102293
102124, 102293,102294
102125, 102294,102295
102126, 102295,102296
102127, 102296,102297
102128, 102297,102298
102129, 102298,102299
102130, 102299,102300
102131, 102300,102301
102132, 102301,102302
102133, 102302,102303
102134, 102303,102304
102135, 102304,102305
102136, 102305,102306
102137, 102306,102307
102138, 102308,102309
102139, 102309,102310
102140, 102310,102311
102141, 102311,102312
102142, 102312,102313
102143, 102313,102314
102144, 102314,102315
102145, 102315,102316
102146, 102316,102317
102147, 102317,102318
102148, 102318,102319
102149, 102319,102320
102150, 102320,102321
102151, 102321,102322
102152, 102322,102323
102153, 102323,102324
102154, 102324,102325
102155, 102325,102326
102156, 102326,102327
102157, 102327,102328
102158, 102328,102329
102159, 102329,102330
102160, 102330,102331
102161, 102331,102332
102162, 102332,102333
102163, 102333,102334
102164, 102334,102335
102165, 102335,102336
102166, 102336,102337
102167, 102337,102338
102168, 102338,102339
102169, 102339,102340
102170, 102340,102341
102171, 102341,102342
102172, 102342,102343
102173, 102343,102344
102174, 102344,102345
102175, 102345,102346
102176, 102346,102347
102177, 102347,102348
102178, 102348,102349
102179, 102349,102350
102180, 102350,102351
102181, 102351,102352
102182, 102352,102353
102183, 102353,102354
102184, 102354,102355
102185, 102355,102356
102186, 102356,102357
102187, 102357,102358
102188, 102358,102359
102189, 102359,102360
102190, 102360,102361
102191, 102361,102362
102192, 102362,102363
102193, 102363,102364
102194, 102364,102365
102195, 102365,102366
102196, 102366,102367
102197, 102367,102368
102198, 102368,102369
102199, 102369,102370
102200, 102370,102371
102201, 102371,102372
102202, 102372,102373
102203, 102373,102374
102204, 102374,102375
102205, 102375,102376
102206, 102376,102377
102207, 102377,102378
102208, 102378,102379
102209, 102379,102380
102210, 102380,102381
102211, 102381,102382
102212, 102382,102383
102213, 102383,102384
102214, 102384,102385
102215, 102385,102386
102216, 102386,102387
102217, 102387,102388
102218, 102388,102389
102219, 102389,102390
102220, 102390,102391
102221, 102391,102392
102222, 102392,102393
102223, 102394,102395
102224, 102395,102396
102225, 102396,102397
102226, 102397,102398
102227, 102398,102399
102228, 102399,102400
102229, 102400,102401
102230, 102401,102402
102231, 102402,102403
102232, 102403,102404
102233, 102404,102405
102234, 102405,102406
102235, 102406,102407
102236, 102407,102408
102237, 102408,102409
102238, 102409,102410
102239, 102410,102411
102240, 102411,102412
102241, 102412,102413
102242, 102413,102414
102243, 102414,102415
102244, 102415,102416
102245, 102416,102417
102246, 102417,102418
102247, 102418,102419
102248, 102419,102420
102249, 102420,102421
102250, 102421,102422
102251, 102422,102423
102252, 102423,102424
102253, 102424,102425
102254, 102425,102426
102255, 102426,102427
102256, 102427,102428
102257, 102428,102429
102258, 102429,102430
102259, 102430,102431
102260, 102431,102432
102261, 102432,102433
102262, 102433,102434
102263, 102434,102435
102264, 102435,102436
102265, 102436,102437
102266, 102437,102438
102267, 102438,102439
102268, 102439,102440
102269, 102440,102441
102270, 102441,102442
102271, 102442,102443
102272, 102443,102444
102273, 102444,102445
102274, 102445,102446
102275, 102446,102447
102276, 102447,102448
102277, 102448,102449
102278, 102449,102450
102279, 102450,102451
102280, 102451,102452
102281, 102452,102453
102282, 102453,102454
102283, 102454,102455
102284, 102455,102456
102285, 102456,102457
102286, 102457,102458
102287, 102458,102459
102288, 102459,102460
102289, 102460,102461
102290, 102461,102462
102291, 102462,102463
102292, 102463,102464
102293, 102464,102465
102294, 102465,102466
102295, 102466,102467
102296, 102467,102468
102297, 102468,102469
102298, 102469,102470
102299, 102470,102471
102300, 102471,102472
102301, 102472,102473
102302, 102473,102474
102303, 102474,102475
102304, 102475,102476
102305, 102476,102477
102306, 102477,102478
102307, 102478,102479
102308, 102480,102481
102309, 102481,102482
102310, 102482,102483
102311, 102483,102484
102312, 102484,102485
102313, 102485,102486
102314, 102486,102487
102315, 102487,102488
102316, 102488,102489
102317, 102489,102490
102318, 102490,102491
102319, 102491,102492
102320, 102492,102493
102321, 102493,102494
102322, 102494,102495
102323, 102495,102496
102324, 102496,102497
102325, 102497,102498
102326, 102498,102499
102327, 102499,102500
102328, 102500,102501
102329, 102501,102502
102330, 102502,102503
102331, 102503,102504
102332, 102504,102505
102333, 102505,102506
102334, 102506,102507
102335, 102507,102508
102336, 102508,102509
102337, 102509,102510
102338, 102510,102511
102339, 102511,102512
102340, 102512,102513
102341, 102513,102514
102342, 102514,102515
102343, 102515,102516
102344, 102516,102517
102345, 102517,102518
102346, 102518,102519
102347, 102519,102520
102348, 102520,102521
102349, 102521,102522
102350, 102522,102523
102351, 102523,102524
102352, 102524,102525
102353, 102525,102526
102354, 102526,102527
102355, 102527,102528
102356, 102528,102529
102357, 102529,102530
102358, 102530,102531
102359, 102531,102532
102360, 102532,102533
102361, 102533,102534
102362, 102534,102535
102363, 102535,102536
102364, 102536,102537
102365, 102537,102538
102366, 102538,102539
102367, 102539,102540
102368, 102540,102541
102369, 102541,102542
102370, 102542,102543
102371, 102543,102544
102372, 102544,102545
102373, 102545,102546
102374, 102546,102547
102375, 102547,102548
102376, 102548,102549
102377, 102549,102550
102378, 102550,102551
102379, 102551,102552
102380, 102552,102553
102381, 102553,102554
102382, 102554,102555
102383, 102555,102556
102384, 102556,102557
102385, 102557,102558
102386, 102558,102559
102387, 102559,102560
102388, 102560,102561
102389, 102561,102562
102390, 102562,102563
102391, 102563,102564
102392, 102564,102565
102393, 102566,102567
102394, 102567,102568
102395, 102568,102569
102396, 102569,102570
102397, 102570,102571
102398, 102571,102572
102399, 102572,102573
102400, 102573,102574
102401, 102574,102575
102402, 102575,102576
102403, 102576,102577
102404, 102577,102578
102405, 102578,102579
102406, 102579,102580
102407, 102580,102581
102408, 102581,102582
102409, 102582,102583
102410, 102583,102584
102411, 102584,102585
102412, 102585,102586
102413, 102586,102587
102414, 102587,102588
102415, 102588,102589
102416, 102589,102590
102417, 102590,102591
102418, 102591,102592
102419, 102592,102593
102420, 102593,102594
102421, 102594,102595
102422, 102595,102596
102423, 102596,102597
102424, 102597,102598
102425, 102598,102599
102426, 102599,102600
102427, 102600,102601
102428, 102601,102602
102429, 102602,102603
102430, 102603,102604
102431, 102604,102605
102432, 102605,102606
102433, 102606,102607
102434, 102607,102608
102435, 102608,102609
102436, 102609,102610
102437, 102610,102611
102438, 102611,102612
102439, 102612,102613
102440, 102613,102614
102441, 102614,102615
102442, 102615,102616
102443, 102616,102617
102444, 102617,102618
102445, 102618,102619
102446, 102619,102620
102447, 102620,102621
102448, 102621,102622
102449, 102622,102623
102450, 102623,102624
102451, 102624,102625
102452, 102625,102626
102453, 102626,102627
102454, 102627,102628
102455, 102628,102629
102456, 102629,102630
102457, 102630,102631
102458, 102631,102632
102459, 102632,102633
102460, 102633,102634
102461, 102634,102635
102462, 102635,102636
102463, 102636,102637
102464, 102637,102638
102465, 102638,102639
102466, 102639,102640
102467, 102640,102641
102468, 102641,102642
102469, 102642,102643
102470, 102643,102644
102471, 102644,102645
102472, 102645,102646
102473, 102646,102647
102474, 102647,102648
102475, 102648,102649
102476, 102649,102650
102477, 102650,102651
102478, 102652,102653
102479, 102653,102654
102480, 102654,102655
102481, 102655,102656
102482, 102656,102657
102483, 102657,102658
102484, 102658,102659
102485, 102659,102660
102486, 102660,102661
102487, 102661,102662
102488, 102662,102663
102489, 102663,102664
102490, 102664,102665
102491, 102665,102666
102492, 102666,102667
102493, 102667,102668
102494, 102668,102669
102495, 102669,102670
102496, 102670,102671
102497, 102671,102672
102498, 102672,102673
102499, 102673,102674
102500, 102674,102675
102501, 102675,102676
102502, 102676,102677
102503, 102677,102678
102504, 102678,102679
102505, 102679,102680
102506, 102680,102681
102507, 102681,102682
102508, 102682,102683
102509, 102683,102684
102510, 102684,102685
102511, 102685,102686
102512, 102686,102687
102513, 102687,102688
102514, 102688,102689
102515, 102689,102690
102516, 102690,102691
102517, 102691,102692
102518, 102692,102693
102519, 102693,102694
102520, 102694,102695
102521, 102695,102696
102522, 102696,102697
102523, 102697,102698
102524, 102698,102699
102525, 102699,102700
102526, 102700,102701
102527, 102701,102702
102528, 102702,102703
102529, 102703,102704
102530, 102704,102705
102531, 102705,102706
102532, 102706,102707
102533, 102707,102708
102534, 102708,102709
102535, 102709,102710
102536, 102710,102711
102537, 102711,102712
102538, 102712,102713
102539, 102713,102714
102540, 102714,102715
102541, 102715,102716
102542, 102716,102717
102543, 102717,102718
102544, 102718,102719
102545, 102719,102720
102546, 102720,102721
102547, 102721,102722
102548, 102722,102723
102549, 102723,102724
102550, 102724,102725
102551, 102725,102726
102552, 102726,102727
102553, 102727,102728
102554, 102728,102729
102555, 102729,102730
102556, 102730,102731
102557, 102731,102732
102558, 102732,102733
102559, 102733,102734
102560, 102734,102735
102561, 102735,102736
102562, 102736,102737
102563, 102738,102739
102564, 102739,102740
102565, 102740,102741
102566, 102741,102742
102567, 102742,102743
102568, 102743,102744
102569, 102744,102745
102570, 102745,102746
102571, 102746,102747
102572, 102747,102748
102573, 102748,102749
102574, 102749,102750
102575, 102750,102751
102576, 102751,102752
102577, 102752,102753
102578, 102753,102754
102579, 102754,102755
102580, 102755,102756
102581, 102756,102757
102582, 102757,102758
102583, 102758,102759
102584, 102759,102760
102585, 102760,102761
102586, 102761,102762
102587, 102762,102763
102588, 102763,102764
102589, 102764,102765
102590, 102765,102766
102591, 102766,102767
102592, 102767,102768
102593, 102768,102769
102594, 102769,102770
102595, 102770,102771
102596, 102771,102772
102597, 102772,102773
102598, 102773,102774
102599, 102774,102775
102600, 102775,102776
102601, 102776,102777
102602, 102777,102778
102603, 102778,102779
102604, 102779,102780
102605, 102780,102781
102606, 102781,102782
102607, 102782,102783
102608, 102783,102784
102609, 102784,102785
102610, 102785,102786
102611, 102786,102787
102612, 102787,102788
102613, 102788,102789
102614, 102789,102790
102615, 102790,102791
102616, 102791,102792
102617, 102792,102793
102618, 102793,102794
102619, 102794,102795
102620, 102795,102796
102621, 102796,102797
102622, 102797,102798
102623, 102798,102799
102624, 102799,102800
102625, 102800,102801
102626, 102801,102802
102627, 102802,102803
102628, 102803,102804
102629, 102804,102805
102630, 102805,102806
102631, 102806,102807
102632, 102807,102808
102633, 102808,102809
102634, 102809,102810
102635, 102810,102811
102636, 102811,102812
102637, 102812,102813
102638, 102813,102814
102639, 102814,102815
102640, 102815,102816
102641, 102816,102817
102642, 102817,102818
102643, 102818,102819
102644, 102819,102820
102645, 102820,102821
102646, 102821,102822
102647, 102822,102823
102648, 102824,102825
102649, 102825,102826
102650, 102826,102827
102651, 102827,102828
102652, 102828,102829
102653, 102829,102830
102654, 102830,102831
102655, 102831,102832
102656, 102832,102833
102657, 102833,102834
102658, 102834,102835
102659, 102835,102836
102660, 102836,102837
102661, 102837,102838
102662, 102838,102839
102663, 102839,102840
102664, 102840,102841
102665, 102841,102842
102666, 102842,102843
102667, 102843,102844
102668, 102844,102845
102669, 102845,102846
102670, 102846,102847
102671, 102847,102848
102672, 102848,102849
102673, 102849,102850
102674, 102850,102851
102675, 102851,102852
102676, 102852,102853
102677, 102853,102854
102678, 102854,102855
102679, 102855,102856
102680, 102856,102857
102681, 102857,102858
102682, 102858,102859
102683, 102859,102860
102684, 102860,102861
102685, 102861,102862
102686, 102862,102863
102687, 102863,102864
102688, 102864,102865
102689, 102865,102866
102690, 102866,102867
102691, 102867,102868
102692, 102868,102869
102693, 102869,102870
102694, 102870,102871
102695, 102871,102872
102696, 102872,102873
102697, 102873,102874
102698, 102874,102875
102699, 102875,102876
102700, 102876,102877
102701, 102877,102878
102702, 102878,102879
102703, 102879,102880
102704, 102880,102881
102705, 102881,102882
102706, 102882,102883
102707, 102883,102884
102708, 102884,102885
102709, 102885,102886
102710, 102886,102887
102711, 102887,102888
102712, 102888,102889
102713, 102889,102890
102714, 102890,102891
102715, 102891,102892
102716, 102892,102893
102717, 102893,102894
102718, 102894,102895
102719, 102895,102896
102720, 102896,102897
102721, 102897,102898
102722, 102898,102899
102723, 102899,102900
102724, 102900,102901
102725, 102901,102902
102726, 102902,102903
102727, 102903,102904
102728, 102904,102905
102729, 102905,102906
102730, 102906,102907
102731, 102907,102908
102732, 102908,102909
102733, 102910,102911
102734, 102911,102912
102735, 102912,102913
102736, 102913,102914
102737, 102914,102915
102738, 102915,102916
102739, 102916,102917
102740, 102917,102918
102741, 102918,102919
102742, 102919,102920
102743, 102920,102921
102744, 102921,102922
102745, 102922,102923
102746, 102923,102924
102747, 102924,102925
102748, 102925,102926
102749, 102926,102927
102750, 102927,102928
102751, 102928,102929
102752, 102929,102930
102753, 102930,102931
102754, 102931,102932
102755, 102932,102933
102756, 102933,102934
102757, 102934,102935
102758, 102935,102936
102759, 102936,102937
102760, 102937,102938
102761, 102938,102939
102762, 102939,102940
102763, 102940,102941
102764, 102941,102942
102765, 102942,102943
102766, 102943,102944
102767, 102944,102945
102768, 102945,102946
102769, 102946,102947
102770, 102947,102948
102771, 102948,102949
102772, 102949,102950
102773, 102950,102951
102774, 102951,102952
102775, 102952,102953
102776, 102953,102954
102777, 102954,102955
102778, 102955,102956
102779, 102956,102957
102780, 102957,102958
102781, 102958,102959
102782, 102959,102960
102783, 102960,102961
102784, 102961,102962
102785, 102962,102963
102786, 102963,102964
102787, 102964,102965
102788, 102965,102966
102789, 102966,102967
102790, 102967,102968
102791, 102968,102969
102792, 102969,102970
102793, 102970,102971
102794, 102971,102972
102795, 102972,102973
102796, 102973,102974
102797, 102974,102975
102798, 102975,102976
102799, 102976,102977
102800, 102977,102978
102801, 102978,102979
102802, 102979,102980
102803, 102980,102981
102804, 102981,102982
102805, 102982,102983
102806, 102983,102984
102807, 102984,102985
102808, 102985,102986
102809, 102986,102987
102810, 102987,102988
102811, 102988,102989
102812, 102989,102990
102813, 102990,102991
102814, 102991,102992
102815, 102992,102993
102816, 102993,102994
102817, 102994,102995
102818, 102996,102997
102819, 102997,102998
102820, 102998,102999
102821, 102999,103000
102822, 103000,103001
102823, 103001,103002
102824, 103002,103003
102825, 103003,103004
102826, 103004,103005
102827, 103005,103006
102828, 103006,103007
102829, 103007,103008
102830, 103008,103009
102831, 103009,103010
102832, 103010,103011
102833, 103011,103012
102834, 103012,103013
102835, 103013,103014
102836, 103014,103015
102837, 103015,103016
102838, 103016,103017
102839, 103017,103018
102840, 103018,103019
102841, 103019,103020
102842, 103020,103021
102843, 103021,103022
102844, 103022,103023
102845, 103023,103024
102846, 103024,103025
102847, 103025,103026
102848, 103026,103027
102849, 103027,103028
102850, 103028,103029
102851, 103029,103030
102852, 103030,103031
102853, 103031,103032
102854, 103032,103033
102855, 103033,103034
102856, 103034,103035
102857, 103035,103036
102858, 103036,103037
102859, 103037,103038
102860, 103038,103039
102861, 103039,103040
102862, 103040,103041
102863, 103041,103042
102864, 103042,103043
102865, 103043,103044
102866, 103044,103045
102867, 103045,103046
102868, 103046,103047
102869, 103047,103048
102870, 103048,103049
102871, 103049,103050
102872, 103050,103051
102873, 103051,103052
102874, 103052,103053
102875, 103053,103054
102876, 103054,103055
102877, 103055,103056
102878, 103056,103057
102879, 103057,103058
102880, 103058,103059
102881, 103059,103060
102882, 103060,103061
102883, 103061,103062
102884, 103062,103063
102885, 103063,103064
102886, 103064,103065
102887, 103065,103066
102888, 103066,103067
102889, 103067,103068
102890, 103068,103069
102891, 103069,103070
102892, 103070,103071
102893, 103071,103072
102894, 103072,103073
102895, 103073,103074
102896, 103074,103075
102897, 103075,103076
102898, 103076,103077
102899, 103077,103078
102900, 103078,103079
102901, 103079,103080
102902, 103080,103081
102903, 103082,103083
102904, 103083,103084
102905, 103084,103085
102906, 103085,103086
102907, 103086,103087
102908, 103087,103088
102909, 103088,103089
102910, 103089,103090
102911, 103090,103091
102912, 103091,103092
102913, 103092,103093
102914, 103093,103094
102915, 103094,103095
102916, 103095,103096
102917, 103096,103097
102918, 103097,103098
102919, 103098,103099
102920, 103099,103100
102921, 103100,103101
102922, 103101,103102
102923, 103102,103103
102924, 103103,103104
102925, 103104,103105
102926, 103105,103106
102927, 103106,103107
102928, 103107,103108
102929, 103108,103109
102930, 103109,103110
102931, 103110,103111
102932, 103111,103112
102933, 103112,103113
102934, 103113,103114
102935, 103114,103115
102936, 103115,103116
102937, 103116,103117
102938, 103117,103118
102939, 103118,103119
102940, 103119,103120
102941, 103120,103121
102942, 103121,103122
102943, 103122,103123
102944, 103123,103124
102945, 103124,103125
102946, 103125,103126
102947, 103126,103127
102948, 103127,103128
102949, 103128,103129
102950, 103129,103130
102951, 103130,103131
102952, 103131,103132
102953, 103132,103133
102954, 103133,103134
102955, 103134,103135
102956, 103135,103136
102957, 103136,103137
102958, 103137,103138
102959, 103138,103139
102960, 103139,103140
102961, 103140,103141
102962, 103141,103142
102963, 103142,103143
102964, 103143,103144
102965, 103144,103145
102966, 103145,103146
102967, 103146,103147
102968, 103147,103148
102969, 103148,103149
102970, 103149,103150
102971, 103150,103151
102972, 103151,103152
102973, 103152,103153
102974, 103153,103154
102975, 103154,103155
102976, 103155,103156
102977, 103156,103157
102978, 103157,103158
102979, 103158,103159
102980, 103159,103160
102981, 103160,103161
102982, 103161,103162
102983, 103162,103163
102984, 103163,103164
102985, 103164,103165
102986, 103165,103166
102987, 103166,103167
102988, 103168,103169
102989, 103169,103170
102990, 103170,103171
102991, 103171,103172
102992, 103172,103173
102993, 103173,103174
102994, 103174,103175
102995, 103175,103176
102996, 103176,103177
102997, 103177,103178
102998, 103178,103179
102999, 103179,103180
103000, 103180,103181
103001, 103181,103182
103002, 103182,103183
103003, 103183,103184
103004, 103184,103185
103005, 103185,103186
103006, 103186,103187
103007, 103187,103188
103008, 103188,103189
103009, 103189,103190
103010, 103190,103191
103011, 103191,103192
103012, 103192,103193
103013, 103193,103194
103014, 103194,103195
103015, 103195,103196
103016, 103196,103197
103017, 103197,103198
103018, 103198,103199
103019, 103199,103200
103020, 103200,103201
103021, 103201,103202
103022, 103202,103203
103023, 103203,103204
103024, 103204,103205
103025, 103205,103206
103026, 103206,103207
103027, 103207,103208
103028, 103208,103209
103029, 103209,103210
103030, 103210,103211
103031, 103211,103212
103032, 103212,103213
103033, 103213,103214
103034, 103214,103215
103035, 103215,103216
103036, 103216,103217
103037, 103217,103218
103038, 103218,103219
103039, 103219,103220
103040, 103220,103221
103041, 103221,103222
103042, 103222,103223
103043, 103223,103224
103044, 103224,103225
103045, 103225,103226
103046, 103226,103227
103047, 103227,103228
103048, 103228,103229
103049, 103229,103230
103050, 103230,103231
103051, 103231,103232
103052, 103232,103233
103053, 103233,103234
103054, 103234,103235
103055, 103235,103236
103056, 103236,103237
103057, 103237,103238
103058, 103238,103239
103059, 103239,103240
103060, 103240,103241
103061, 103241,103242
103062, 103242,103243
103063, 103243,103244
103064, 103244,103245
103065, 103245,103246
103066, 103246,103247
103067, 103247,103248
103068, 103248,103249
103069, 103249,103250
103070, 103250,103251
103071, 103251,103252
103072, 103252,103253
103073, 103254,103255
103074, 103255,103256
103075, 103256,103257
103076, 103257,103258
103077, 103258,103259
103078, 103259,103260
103079, 103260,103261
103080, 103261,103262
103081, 103262,103263
103082, 103263,103264
103083, 103264,103265
103084, 103265,103266
103085, 103266,103267
103086, 103267,103268
103087, 103268,103269
103088, 103269,103270
103089, 103270,103271
103090, 103271,103272
103091, 103272,103273
103092, 103273,103274
103093, 103274,103275
103094, 103275,103276
103095, 103276,103277
103096, 103277,103278
103097, 103278,103279
103098, 103279,103280
103099, 103280,103281
103100, 103281,103282
103101, 103282,103283
103102, 103283,103284
103103, 103284,103285
103104, 103285,103286
103105, 103286,103287
103106, 103287,103288
103107, 103288,103289
103108, 103289,103290
103109, 103290,103291
103110, 103291,103292
103111, 103292,103293
103112, 103293,103294
103113, 103294,103295
103114, 103295,103296
103115, 103296,103297
103116, 103297,103298
103117, 103298,103299
103118, 103299,103300
103119, 103300,103301
103120, 103301,103302
103121, 103302,103303
103122, 103303,103304
103123, 103304,103305
103124, 103305,103306
103125, 103306,103307
103126, 103307,103308
103127, 103308,103309
103128, 103309,103310
103129, 103310,103311
103130, 103311,103312
103131, 103312,103313
103132, 103313,103314
103133, 103314,103315
103134, 103315,103316
103135, 103316,103317
103136, 103317,103318
103137, 103318,103319
103138, 103319,103320
103139, 103320,103321
103140, 103321,103322
103141, 103322,103323
103142, 103323,103324
103143, 103324,103325
103144, 103325,103326
103145, 103326,103327
103146, 103327,103328
103147, 103328,103329
103148, 103329,103330
103149, 103330,103331
103150, 103331,103332
103151, 103332,103333
103152, 103333,103334
103153, 103334,103335
103154, 103335,103336
103155, 103336,103337
103156, 103337,103338
103157, 103338,103339
103158, 103340,103341
103159, 103341,103342
103160, 103342,103343
103161, 103343,103344
103162, 103344,103345
103163, 103345,103346
103164, 103346,103347
103165, 103347,103348
103166, 103348,103349
103167, 103349,103350
103168, 103350,103351
103169, 103351,103352
103170, 103352,103353
103171, 103353,103354
103172, 103354,103355
103173, 103355,103356
103174, 103356,103357
103175, 103357,103358
103176, 103358,103359
103177, 103359,103360
103178, 103360,103361
103179, 103361,103362
103180, 103362,103363
103181, 103363,103364
103182, 103364,103365
103183, 103365,103366
103184, 103366,103367
103185, 103367,103368
103186, 103368,103369
103187, 103369,103370
103188, 103370,103371
103189, 103371,103372
103190, 103372,103373
103191, 103373,103374
103192, 103374,103375
103193, 103375,103376
103194, 103376,103377
103195, 103377,103378
103196, 103378,103379
103197, 103379,103380
103198, 103380,103381
103199, 103381,103382
103200, 103382,103383
103201, 103383,103384
103202, 103384,103385
103203, 103385,103386
103204, 103386,103387
103205, 103387,103388
103206, 103388,103389
103207, 103389,103390
103208, 103390,103391
103209, 103391,103392
103210, 103392,103393
103211, 103393,103394
103212, 103394,103395
103213, 103395,103396
103214, 103396,103397
103215, 103397,103398
103216, 103398,103399
103217, 103399,103400
103218, 103400,103401
103219, 103401,103402
103220, 103402,103403
103221, 103403,103404
103222, 103404,103405
103223, 103405,103406
103224, 103406,103407
103225, 103407,103408
103226, 103408,103409
103227, 103409,103410
103228, 103410,103411
103229, 103411,103412
103230, 103412,103413
103231, 103413,103414
103232, 103414,103415
103233, 103415,103416
103234, 103416,103417
103235, 103417,103418
103236, 103418,103419
103237, 103419,103420
103238, 103420,103421
103239, 103421,103422
103240, 103422,103423
103241, 103423,103424
103242, 103424,103425
103243, 103426,103427
103244, 103427,103428
103245, 103428,103429
103246, 103429,103430
103247, 103430,103431
103248, 103431,103432
103249, 103432,103433
103250, 103433,103434
103251, 103434,103435
103252, 103435,103436
103253, 103436,103437
103254, 103437,103438
103255, 103438,103439
103256, 103439,103440
103257, 103440,103441
103258, 103441,103442
103259, 103442,103443
103260, 103443,103444
103261, 103444,103445
103262, 103445,103446
103263, 103446,103447
103264, 103447,103448
103265, 103448,103449
103266, 103449,103450
103267, 103450,103451
103268, 103451,103452
103269, 103452,103453
103270, 103453,103454
103271, 103454,103455
103272, 103455,103456
103273, 103456,103457
103274, 103457,103458
103275, 103458,103459
103276, 103459,103460
103277, 103460,103461
103278, 103461,103462
103279, 103462,103463
103280, 103463,103464
103281, 103464,103465
103282, 103465,103466
103283, 103466,103467
103284, 103467,103468
103285, 103468,103469
103286, 103469,103470
103287, 103470,103471
103288, 103471,103472
103289, 103472,103473
103290, 103473,103474
103291, 103474,103475
103292, 103475,103476
103293, 103476,103477
103294, 103477,103478
103295, 103478,103479
103296, 103479,103480
103297, 103480,103481
103298, 103481,103482
103299, 103482,103483
103300, 103483,103484
103301, 103484,103485
103302, 103485,103486
103303, 103486,103487
103304, 103487,103488
103305, 103488,103489
103306, 103489,103490
103307, 103490,103491
103308, 103491,103492
103309, 103492,103493
103310, 103493,103494
103311, 103494,103495
103312, 103495,103496
103313, 103496,103497
103314, 103497,103498
103315, 103498,103499
103316, 103499,103500
103317, 103500,103501
103318, 103501,103502
103319, 103502,103503
103320, 103503,103504
103321, 103504,103505
103322, 103505,103506
103323, 103506,103507
103324, 103507,103508
103325, 103508,103509
103326, 103509,103510
103327, 103510,103511
103328, 103512,103513
103329, 103513,103514
103330, 103514,103515
103331, 103515,103516
103332, 103516,103517
103333, 103517,103518
103334, 103518,103519
103335, 103519,103520
103336, 103520,103521
103337, 103521,103522
103338, 103522,103523
103339, 103523,103524
103340, 103524,103525
103341, 103525,103526
103342, 103526,103527
103343, 103527,103528
103344, 103528,103529
103345, 103529,103530
103346, 103530,103531
103347, 103531,103532
103348, 103532,103533
103349, 103533,103534
103350, 103534,103535
103351, 103535,103536
103352, 103536,103537
103353, 103537,103538
103354, 103538,103539
103355, 103539,103540
103356, 103540,103541
103357, 103541,103542
103358, 103542,103543
103359, 103543,103544
103360, 103544,103545
103361, 103545,103546
103362, 103546,103547
103363, 103547,103548
103364, 103548,103549
103365, 103549,103550
103366, 103550,103551
103367, 103551,103552
103368, 103552,103553
103369, 103553,103554
103370, 103554,103555
103371, 103555,103556
103372, 103556,103557
103373, 103557,103558
103374, 103558,103559
103375, 103559,103560
103376, 103560,103561
103377, 103561,103562
103378, 103562,103563
103379, 103563,103564
103380, 103564,103565
103381, 103565,103566
103382, 103566,103567
103383, 103567,103568
103384, 103568,103569
103385, 103569,103570
103386, 103570,103571
103387, 103571,103572
103388, 103572,103573
103389, 103573,103574
103390, 103574,103575
103391, 103575,103576
103392, 103576,103577
103393, 103577,103578
103394, 103578,103579
103395, 103579,103580
103396, 103580,103581
103397, 103581,103582
103398, 103582,103583
103399, 103583,103584
103400, 103584,103585
103401, 103585,103586
103402, 103586,103587
103403, 103587,103588
103404, 103588,103589
103405, 103589,103590
103406, 103590,103591
103407, 103591,103592
103408, 103592,103593
103409, 103593,103594
103410, 103594,103595
103411, 103595,103596
103412, 103596,103597
103413, 103598,103599
103414, 103599,103600
103415, 103600,103601
103416, 103601,103602
103417, 103602,103603
103418, 103603,103604
103419, 103604,103605
103420, 103605,103606
103421, 103606,103607
103422, 103607,103608
103423, 103608,103609
103424, 103609,103610
103425, 103610,103611
103426, 103611,103612
103427, 103612,103613
103428, 103613,103614
103429, 103614,103615
103430, 103615,103616
103431, 103616,103617
103432, 103617,103618
103433, 103618,103619
103434, 103619,103620
103435, 103620,103621
103436, 103621,103622
103437, 103622,103623
103438, 103623,103624
103439, 103624,103625
103440, 103625,103626
103441, 103626,103627
103442, 103627,103628
103443, 103628,103629
103444, 103629,103630
103445, 103630,103631
103446, 103631,103632
103447, 103632,103633
103448, 103633,103634
103449, 103634,103635
103450, 103635,103636
103451, 103636,103637
103452, 103637,103638
103453, 103638,103639
103454, 103639,103640
103455, 103640,103641
103456, 103641,103642
103457, 103642,103643
103458, 103643,103644
103459, 103644,103645
103460, 103645,103646
103461, 103646,103647
103462, 103647,103648
103463, 103648,103649
103464, 103649,103650
103465, 103650,103651
103466, 103651,103652
103467, 103652,103653
103468, 103653,103654
103469, 103654,103655
103470, 103655,103656
103471, 103656,103657
103472, 103657,103658
103473, 103658,103659
103474, 103659,103660
103475, 103660,103661
103476, 103661,103662
103477, 103662,103663
103478, 103663,103664
103479, 103664,103665
103480, 103665,103666
103481, 103666,103667
103482, 103667,103668
103483, 103668,103669
103484, 103669,103670
103485, 103670,103671
103486, 103671,103672
103487, 103672,103673
103488, 103673,103674
103489, 103674,103675
103490, 103675,103676
103491, 103676,103677
103492, 103677,103678
103493, 103678,103679
103494, 103679,103680
103495, 103680,103681
103496, 103681,103682
103497, 103682,103683
103498, 103684,103685
103499, 103685,103686
103500, 103686,103687
103501, 103687,103688
103502, 103688,103689
103503, 103689,103690
103504, 103690,103691
103505, 103691,103692
103506, 103692,103693
103507, 103693,103694
103508, 103694,103695
103509, 103695,103696
103510, 103696,103697
103511, 103697,103698
103512, 103698,103699
103513, 103699,103700
103514, 103700,103701
103515, 103701,103702
103516, 103702,103703
103517, 103703,103704
103518, 103704,103705
103519, 103705,103706
103520, 103706,103707
103521, 103707,103708
103522, 103708,103709
103523, 103709,103710
103524, 103710,103711
103525, 103711,103712
103526, 103712,103713
103527, 103713,103714
103528, 103714,103715
103529, 103715,103716
103530, 103716,103717
103531, 103717,103718
103532, 103718,103719
103533, 103719,103720
103534, 103720,103721
103535, 103721,103722
103536, 103722,103723
103537, 103723,103724
103538, 103724,103725
103539, 103725,103726
103540, 103726,103727
103541, 103727,103728
103542, 103728,103729
103543, 103729,103730
103544, 103730,103731
103545, 103731,103732
103546, 103732,103733
103547, 103733,103734
103548, 103734,103735
103549, 103735,103736
103550, 103736,103737
103551, 103737,103738
103552, 103738,103739
103553, 103739,103740
103554, 103740,103741
103555, 103741,103742
103556, 103742,103743
103557, 103743,103744
103558, 103744,103745
103559, 103745,103746
103560, 103746,103747
103561, 103747,103748
103562, 103748,103749
103563, 103749,103750
103564, 103750,103751
103565, 103751,103752
103566, 103752,103753
103567, 103753,103754
103568, 103754,103755
103569, 103755,103756
103570, 103756,103757
103571, 103757,103758
103572, 103758,103759
103573, 103759,103760
103574, 103760,103761
103575, 103761,103762
103576, 103762,103763
103577, 103763,103764
103578, 103764,103765
103579, 103765,103766
103580, 103766,103767
103581, 103767,103768
103582, 103768,103769
103583, 103770,103771
103584, 103771,103772
103585, 103772,103773
103586, 103773,103774
103587, 103774,103775
103588, 103775,103776
103589, 103776,103777
103590, 103777,103778
103591, 103778,103779
103592, 103779,103780
103593, 103780,103781
103594, 103781,103782
103595, 103782,103783
103596, 103783,103784
103597, 103784,103785
103598, 103785,103786
103599, 103786,103787
103600, 103787,103788
103601, 103788,103789
103602, 103789,103790
103603, 103790,103791
103604, 103791,103792
103605, 103792,103793
103606, 103793,103794
103607, 103794,103795
103608, 103795,103796
103609, 103796,103797
103610, 103797,103798
103611, 103798,103799
103612, 103799,103800
103613, 103800,103801
103614, 103801,103802
103615, 103802,103803
103616, 103803,103804
103617, 103804,103805
103618, 103805,103806
103619, 103806,103807
103620, 103807,103808
103621, 103808,103809
103622, 103809,103810
103623, 103810,103811
103624, 103811,103812
103625, 103812,103813
103626, 103813,103814
103627, 103814,103815
103628, 103815,103816
103629, 103816,103817
103630, 103817,103818
103631, 103818,103819
103632, 103819,103820
103633, 103820,103821
103634, 103821,103822
103635, 103822,103823
103636, 103823,103824
103637, 103824,103825
103638, 103825,103826
103639, 103826,103827
103640, 103827,103828
103641, 103828,103829
103642, 103829,103830
103643, 103830,103831
103644, 103831,103832
103645, 103832,103833
103646, 103833,103834
103647, 103834,103835
103648, 103835,103836
103649, 103836,103837
103650, 103837,103838
103651, 103838,103839
103652, 103839,103840
103653, 103840,103841
103654, 103841,103842
103655, 103842,103843
103656, 103843,103844
103657, 103844,103845
103658, 103845,103846
103659, 103846,103847
103660, 103847,103848
103661, 103848,103849
103662, 103849,103850
103663, 103850,103851
103664, 103851,103852
103665, 103852,103853
103666, 103853,103854
103667, 103854,103855
103668, 103856,103857
103669, 103857,103858
103670, 103858,103859
103671, 103859,103860
103672, 103860,103861
103673, 103861,103862
103674, 103862,103863
103675, 103863,103864
103676, 103864,103865
103677, 103865,103866
103678, 103866,103867
103679, 103867,103868
103680, 103868,103869
103681, 103869,103870
103682, 103870,103871
103683, 103871,103872
103684, 103872,103873
103685, 103873,103874
103686, 103874,103875
103687, 103875,103876
103688, 103876,103877
103689, 103877,103878
103690, 103878,103879
103691, 103879,103880
103692, 103880,103881
103693, 103881,103882
103694, 103882,103883
103695, 103883,103884
103696, 103884,103885
103697, 103885,103886
103698, 103886,103887
103699, 103887,103888
103700, 103888,103889
103701, 103889,103890
103702, 103890,103891
103703, 103891,103892
103704, 103892,103893
103705, 103893,103894
103706, 103894,103895
103707, 103895,103896
103708, 103896,103897
103709, 103897,103898
103710, 103898,103899
103711, 103899,103900
103712, 103900,103901
103713, 103901,103902
103714, 103902,103903
103715, 103903,103904
103716, 103904,103905
103717, 103905,103906
103718, 103906,103907
103719, 103907,103908
103720, 103908,103909
103721, 103909,103910
103722, 103910,103911
103723, 103911,103912
103724, 103912,103913
103725, 103913,103914
103726, 103914,103915
103727, 103915,103916
103728, 103916,103917
103729, 103917,103918
103730, 103918,103919
103731, 103919,103920
103732, 103920,103921
103733, 103921,103922
103734, 103922,103923
103735, 103923,103924
103736, 103924,103925
103737, 103925,103926
103738, 103926,103927
103739, 103927,103928
103740, 103928,103929
103741, 103929,103930
103742, 103930,103931
103743, 103931,103932
103744, 103932,103933
103745, 103933,103934
103746, 103934,103935
103747, 103935,103936
103748, 103936,103937
103749, 103937,103938
103750, 103938,103939
103751, 103939,103940
103752, 103940,103941
103753, 103942,103943
103754, 103943,103944
103755, 103944,103945
103756, 103945,103946
103757, 103946,103947
103758, 103947,103948
103759, 103948,103949
103760, 103949,103950
103761, 103950,103951
103762, 103951,103952
103763, 103952,103953
103764, 103953,103954
103765, 103954,103955
103766, 103955,103956
103767, 103956,103957
103768, 103957,103958
103769, 103958,103959
103770, 103959,103960
103771, 103960,103961
103772, 103961,103962
103773, 103962,103963
103774, 103963,103964
103775, 103964,103965
103776, 103965,103966
103777, 103966,103967
103778, 103967,103968
103779, 103968,103969
103780, 103969,103970
103781, 103970,103971
103782, 103971,103972
103783, 103972,103973
103784, 103973,103974
103785, 103974,103975
103786, 103975,103976
103787, 103976,103977
103788, 103977,103978
103789, 103978,103979
103790, 103979,103980
103791, 103980,103981
103792, 103981,103982
103793, 103982,103983
103794, 103983,103984
103795, 103984,103985
103796, 103985,103986
103797, 103986,103987
103798, 103987,103988
103799, 103988,103989
103800, 103989,103990
103801, 103990,103991
103802, 103991,103992
103803, 103992,103993
103804, 103993,103994
103805, 103994,103995
103806, 103995,103996
103807, 103996,103997
103808, 103997,103998
103809, 103998,103999
103810, 103999,104000
103811, 104000,104001
103812, 104001,104002
103813, 104002,104003
103814, 104003,104004
103815, 104004,104005
103816, 104005,104006
103817, 104006,104007
103818, 104007,104008
103819, 104008,104009
103820, 104009,104010
103821, 104010,104011
103822, 104011,104012
103823, 104012,104013
103824, 104013,104014
103825, 104014,104015
103826, 104015,104016
103827, 104016,104017
103828, 104017,104018
103829, 104018,104019
103830, 104019,104020
103831, 104020,104021
103832, 104021,104022
103833, 104022,104023
103834, 104023,104024
103835, 104024,104025
103836, 104025,104026
103837, 104026,104027
103838, 104028,104029
103839, 104029,104030
103840, 104030,104031
103841, 104031,104032
103842, 104032,104033
103843, 104033,104034
103844, 104034,104035
103845, 104035,104036
103846, 104036,104037
103847, 104037,104038
103848, 104038,104039
103849, 104039,104040
103850, 104040,104041
103851, 104041,104042
103852, 104042,104043
103853, 104043,104044
103854, 104044,104045
103855, 104045,104046
103856, 104046,104047
103857, 104047,104048
103858, 104048,104049
103859, 104049,104050
103860, 104050,104051
103861, 104051,104052
103862, 104052,104053
103863, 104053,104054
103864, 104054,104055
103865, 104055,104056
103866, 104056,104057
103867, 104057,104058
103868, 104058,104059
103869, 104059,104060
103870, 104060,104061
103871, 104061,104062
103872, 104062,104063
103873, 104063,104064
103874, 104064,104065
103875, 104065,104066
103876, 104066,104067
103877, 104067,104068
103878, 104068,104069
103879, 104069,104070
103880, 104070,104071
103881, 104071,104072
103882, 104072,104073
103883, 104073,104074
103884, 104074,104075
103885, 104075,104076
103886, 104076,104077
103887, 104077,104078
103888, 104078,104079
103889, 104079,104080
103890, 104080,104081
103891, 104081,104082
103892, 104082,104083
103893, 104083,104084
103894, 104084,104085
103895, 104085,104086
103896, 104086,104087
103897, 104087,104088
103898, 104088,104089
103899, 104089,104090
103900, 104090,104091
103901, 104091,104092
103902, 104092,104093
103903, 104093,104094
103904, 104094,104095
103905, 104095,104096
103906, 104096,104097
103907, 104097,104098
103908, 104098,104099
103909, 104099,104100
103910, 104100,104101
103911, 104101,104102
103912, 104102,104103
103913, 104103,104104
103914, 104104,104105
103915, 104105,104106
103916, 104106,104107
103917, 104107,104108
103918, 104108,104109
103919, 104109,104110
103920, 104110,104111
103921, 104111,104112
103922, 104112,104113
103923, 104114,104115
103924, 104115,104116
103925, 104116,104117
103926, 104117,104118
103927, 104118,104119
103928, 104119,104120
103929, 104120,104121
103930, 104121,104122
103931, 104122,104123
103932, 104123,104124
103933, 104124,104125
103934, 104125,104126
103935, 104126,104127
103936, 104127,104128
103937, 104128,104129
103938, 104129,104130
103939, 104130,104131
103940, 104131,104132
103941, 104132,104133
103942, 104133,104134
103943, 104134,104135
103944, 104135,104136
103945, 104136,104137
103946, 104137,104138
103947, 104138,104139
103948, 104139,104140
103949, 104140,104141
103950, 104141,104142
103951, 104142,104143
103952, 104143,104144
103953, 104144,104145
103954, 104145,104146
103955, 104146,104147
103956, 104147,104148
103957, 104148,104149
103958, 104149,104150
103959, 104150,104151
103960, 104151,104152
103961, 104152,104153
103962, 104153,104154
103963, 104154,104155
103964, 104155,104156
103965, 104156,104157
103966, 104157,104158
103967, 104158,104159
103968, 104159,104160
103969, 104160,104161
103970, 104161,104162
103971, 104162,104163
103972, 104163,104164
103973, 104164,104165
103974, 104165,104166
103975, 104166,104167
103976, 104167,104168
103977, 104168,104169
103978, 104169,104170
103979, 104170,104171
103980, 104171,104172
103981, 104172,104173
103982, 104173,104174
103983, 104174,104175
103984, 104175,104176
103985, 104176,104177
103986, 104177,104178
103987, 104178,104179
103988, 104179,104180
103989, 104180,104181
103990, 104181,104182
103991, 104182,104183
103992, 104183,104184
103993, 104184,104185
103994, 104185,104186
103995, 104186,104187
103996, 104187,104188
103997, 104188,104189
103998, 104189,104190
103999, 104190,104191
104000, 104191,104192
104001, 104192,104193
104002, 104193,104194
104003, 104194,104195
104004, 104195,104196
104005, 104196,104197
104006, 104197,104198
104007, 104198,104199
104008, 104200,104201
104009, 104201,104202
104010, 104202,104203
104011, 104203,104204
104012, 104204,104205
104013, 104205,104206
104014, 104206,104207
104015, 104207,104208
104016, 104208,104209
104017, 104209,104210
104018, 104210,104211
104019, 104211,104212
104020, 104212,104213
104021, 104213,104214
104022, 104214,104215
104023, 104215,104216
104024, 104216,104217
104025, 104217,104218
104026, 104218,104219
104027, 104219,104220
104028, 104220,104221
104029, 104221,104222
104030, 104222,104223
104031, 104223,104224
104032, 104224,104225
104033, 104225,104226
104034, 104226,104227
104035, 104227,104228
104036, 104228,104229
104037, 104229,104230
104038, 104230,104231
104039, 104231,104232
104040, 104232,104233
104041, 104233,104234
104042, 104234,104235
104043, 104235,104236
104044, 104236,104237
104045, 104237,104238
104046, 104238,104239
104047, 104239,104240
104048, 104240,104241
104049, 104241,104242
104050, 104242,104243
104051, 104243,104244
104052, 104244,104245
104053, 104245,104246
104054, 104246,104247
104055, 104247,104248
104056, 104248,104249
104057, 104249,104250
104058, 104250,104251
104059, 104251,104252
104060, 104252,104253
104061, 104253,104254
104062, 104254,104255
104063, 104255,104256
104064, 104256,104257
104065, 104257,104258
104066, 104258,104259
104067, 104259,104260
104068, 104260,104261
104069, 104261,104262
104070, 104262,104263
104071, 104263,104264
104072, 104264,104265
104073, 104265,104266
104074, 104266,104267
104075, 104267,104268
104076, 104268,104269
104077, 104269,104270
104078, 104270,104271
104079, 104271,104272
104080, 104272,104273
104081, 104273,104274
104082, 104274,104275
104083, 104275,104276
104084, 104276,104277
104085, 104277,104278
104086, 104278,104279
104087, 104279,104280
104088, 104280,104281
104089, 104281,104282
104090, 104282,104283
104091, 104283,104284
104092, 104284,104285
*Solid Section, elset=EMBMESH_FIBERS_T0, material=EMBMESH_FIBER
0.0314159265358979
*Solid Section, elset=EMBMESH_FIBERS_T90, material=EMBMESH_FIBER
0.0314159265358979
*End Part
*Assembly, name=Assembly
*Instance, name=PLATE-1, part=PLATE
*End Instance
*Instance, name=EMBFIB-1, part=EMBFIB
*End Instance
*Embedded Element, host elset=PLATE-1.HOST
EMBFIB-1.EMBMESH_FIBERS_T0
EMBFIB-1.EMBMESH_FIBERS_T90
*End Assembly
*Material, name=EMBMESH_FIBER
*Elastic
1, 0.3
