*Heading
*Preprint, echo=NO, model=YES, history=NO, contact=NO
** verification deck skewB_src.inp
*Part, name=PLATE
*Node
1, 0, 0, 0
2, 1, 0, 0
3, 2, 0, 0
4, 3, 0, 0
5, 0, 1, 0
6, 1, 1, 0
7, 2, 1, 0
8, 3, 1, 0
9, 0, 2, 0
10, 1, 2, 0
11, 2, 2, 0
12, 3, 2, 0
13, 0, 3, 0
14, 1, 3, 0
15, 2, 3, 0
16, 3, 3, 0
17, 0.2, 0, 1
18, 1.2, 0, 1
19, 2.2, 0, 1
20, 3.2, 0, 1
21, 0.2, 1, 1
22, 1.26488373768, 1.14299696835, 1.09924684849
23, 2.12797043647, 0.928059862568, 1.13447924034
24, 3.2, 1, 1
25, 0.2, 2, 1
26, 1.04328450851, 2.11564223062, 1.10694499435
27, 2.17250322709, 1.92909167365, 0.920233220356
28, 3.2, 2, 1
29, 0.2, 3, 1
30, 1.2, 3, 1
31, 2.2, 3, 1
32, 3.2, 3, 1
33, 0.4, 0, 2
34, 1.4, 0, 2
35, 2.4, 0, 2
36, 3.4, 0, 2
37, 0.4, 1, 2
38, 1.4, 1, 2
39, 2.4, 1, 2
40, 3.4, 1, 2
41, 0.4, 2, 2
42, 1.4, 2, 2
43, 2.4, 2, 2
44, 3.4, 2, 2
45, 0.4, 3, 2
46, 1.4, 3, 2
47, 2.4, 3, 2
48, 3.4, 3, 2
*Element, type=C3D8R, elset=HOST
1, 1, 2, 6, 5, 17, 18, 22, 21
2, 2, 3, 7, 6, 18, 19, 23, 22
3, 3, 4, 8, 7, 19, 20, 24, 23
4, 5, 6, 10, 9, 21, 22, 26, 25
5, 6, 7, 11, 10, 22, 23, 27, 26
6, 7, 8, 12, 11, 23, 24, 28, 27
7, 9, 10, 14, 13, 25, 26, 30, 29
8, 10, 11, 15, 14, 26, 27, 31, 30
9, 11, 12, 16, 15, 27, 28, 32, 31
10, 17, 18, 22, 21, 33, 34, 38, 37
11, 18, 19, 23, 22, 34, 35, 39, 38
12, 19, 20, 24, 23, 35, 36, 40, 39
13, 21, 22, 26, 25, 37, 38, 42, 41
14, 22, 23, 27, 26, 38, 39, 43, 42
15, 23, 24, 28, 27, 39, 40, 44, 43
16, 25, 26, 30, 29, 41, 42, 46, 45
17, 26, 27, 31, 30, 42, 43, 47, 46
18, 27, 28, 32, 31, 43, 44, 48, 47
*Solid Section, elset=HOST, material=MATRIX
,
*End Part
*Assembly, name=Assembly
*Instance, name=PLATE-1, part=PLATE
*End Instance
*Nset, nset=LEFT, instance=PLATE-1
1, 5, 9, 13, 17, 21, 25, 29, 33, 37, 41, 45
*Nset, nset=RIGHT, instance=PLATE-1
4, 8, 12, 16, 20, 24, 28, 32, 36, 40, 44, 48
*Nset, nset=ORIGIN, instance=PLATE-1
1
*End Assembly
** embmesh generated fibers
*Node, nset=EMBMESH_NODES
100000, -0.359756208713, 2.90127321371, 1.74117775674
100001, 3.29766948419, 2.90182513756, 2.49594292299
100002, -0.359756208713, 2.70127326718, 1.74132400719
100003, 3.29766948419, 2.70182519104, 2.49608917344
100004, -0.359756208713, 2.50127332066, 1.74147025763
100005, 3.29766948419, 2.50182524451, 2.49623542388
100006, -0.359756208713, 2.30127337413, 1.74161650808
100007, 3.29766948419, 2.30182529798, 2.49638167433
100008, -0.359756208713, 2.1012734276, 1.74176275852
100009, 3.29766948419, 2.10182535146, 2.49652792477
100010, -0.359756208713, 1.90127348107, 1.74190900896
100011, 3.29766948419, 1.90182540493, 2.49667417522
100012, -0.359756208713, 1.70127353455, 1.74205525941
100013, 3.29766948419, 1.7018254584, 2.49682042566
100014, -0.359756208713, 1.50127358802, 1.74220150985
100015, 3.29766948419, 1.50182551187, 2.49696667611
100016, -0.359756208713, 1.30127364149, 1.7423477603
100017, 3.29766948419, 1.30182556535, 2.49711292655
100018, -0.359756208713, 1.10127369497, 1.74249401074
100019, 3.29766948419, 1.10182561882, 2.49725917699
100020, -0.359756208713, 0.90127374844, 1.74264026119
100021, 3.29766948419, 0.901825672293, 2.49740542744
100022, -0.359756208713, 0.701273801913, 1.74278651163
100023, 3.29766948419, 0.701825725766, 2.49755167788
100024, -0.359756208713, 0.501273855386, 1.74293276208
100025, 3.29766948419, 0.501825779239, 2.49769792833
100026, -0.359756208713, 0.301273908859, 1.74307901252
100027, 3.29766948419, 0.301825832712, 2.49784417877
100028, -0.359756208713, 0.101273962332, 1.74322526297
100029, 3.29766948419, 0.101825886185, 2.49799042922
100030, -0.221398545065, 3.00114473371, 1.56544262536
100031, -0.221398545065, -0.000316166159899, 1.5676374509
100032, -0.0255258371019, 3.00117429188, 1.60586392421
100033, -0.0255258371019, -0.00028660798733, 1.60805874976
100034, 0.170346870861, 3.00120385005, 1.64628522307
100035, 0.170346870861, -0.000257049814762, 1.64848004862
100036, 0.366219578824, 3.00123340822, 1.68670652193
100037, 0.366219578824, -0.000227491642193, 1.68890134748
100038, 0.562092286788, 3.0012629664, 1.72712782079
100039, 0.562092286788, -0.000197933469624, 1.72932264634
100040, 0.757964994751, 3.00129252457, 1.76754911965
100041, 0.757964994751, -0.000168375297056, 1.7697439452
100042, 0.953837702714, 3.00132208274, 1.80797041851
100043, 0.953837702714, -0.000138817124487, 1.81016524406
100044, 1.14971041068, 3.00135164091, 1.84839171737
100045, 1.14971041068, -0.000109258951918, 1.85058654292
100046, 1.34558311864, 3.00138119909, 1.88881301623
100047, 1.34558311864, -7.97007793496e-05, 1.89100784178
100048, 1.5414558266, 3.00141075726, 1.92923431509
100049, 1.5414558266, -5.01426067809e-05, 1.93142914063
100050, 1.73732853457, 3.00144031543, 1.96965561395
100051, 1.73732853457, -2.05844342123e-05, 1.97185043949
100052, 1.93320124253, 3.0014698736, 2.01007691281
100053, 1.93320124253, 8.9737383564e-06, 2.01227173835
100054, 2.12907395049, 3.00149943178, 2.05049821167
100055, 2.12907395049, 3.85319109251e-05, 2.05269303721
100056, 2.32494665846, 3.00152898995, 2.09091951053
100057, 2.32494665846, 6.80900834937e-05, 2.09311433607
100058, 2.52081936642, 3.00155854812, 2.13134080939
100059, 2.52081936642, 9.76482560624e-05, 2.13353563493
100060, 2.71669207438, 3.0015881063, 2.17176210825
100061, 2.71669207438, 0.000127206428631, 2.17395693379
100062, 2.91256478235, 3.00161766447, 2.21218340711
100063, 2.91256478235, 0.0001567646012, 2.21437823265
100064, 3.10843749031, 3.00164722264, 2.25260470597
100065, 3.10843749031, 0.000186322773768, 2.25479953151
100066, 3.30431019827, 3.00167678081, 2.29302600483
100067, 3.30431019827, 0.000215880946337, 2.29522083037
100068, -0.27891358938, 2.900986749, 1.34943244555
100069, 3.37851210353, 2.90153867286, 2.1041976118
100070, -0.27891358938, 2.70098680248, 1.349578696
100071, 3.37851210353, 2.70153872633, 2.10434386225
100072, -0.27891358938, 2.50098685595, 1.34972494644
100073, 3.37851210353, 2.5015387798, 2.10449011269
100074, -0.27891358938, 2.30098690942, 1.34987119689
100075, 3.37851210353, 2.30153883328, 2.10463636314
100076, -0.27891358938, 2.1009869629, 1.35001744733
100077, 3.37851210353, 2.10153888675, 2.10478261358
100078, -0.27891358938, 1.90098701637, 1.35016369778
100079, 3.37851210353, 1.90153894022, 2.10492886403
100080, -0.27891358938, 1.70098706984, 1.35030994822
100081, 3.37851210353, 1.7015389937, 2.10507511447
100082, -0.27891358938, 1.50098712331, 1.35045619867
100083, 3.37851210353, 1.50153904717, 2.10522136492
100084, -0.27891358938, 1.30098717679, 1.35060244911
100085, 3.37851210353, 1.30153910064, 2.10536761536
100086, -0.27891358938, 1.10098723026, 1.35074869956
100087, 3.37851210353, 1.10153915411, 2.10551386581
100088, -0.27891358938, 0.900987283733, 1.35089495
100089, 3.37851210353, 0.901539207587, 2.10566011625
100090, -0.27891358938, 0.700987337206, 1.35104120045
100091, 3.37851210353, 0.70153926106, 2.1058063667
100092, -0.27891358938, 0.500987390679, 1.35118745089
100093, 3.37851210353, 0.501539314533, 2.10595261714
100094, -0.27891358938, 0.300987444152, 1.35133370133
100095, 3.37851210353, 0.301539368006, 2.10609886759
100096, -0.27891358938, 0.100987497625, 1.35147995178
100097, 3.37851210353, 0.101539421479, 2.10624511803
100098, -0.140555925731, 3.000858269, 1.17369731417
100099, -0.140555925731, -0.000602630866322, 1.17589213971
100100, 0.0553167822318, 3.00088782717, 1.21411861303
100101, 0.0553167822318, -0.000573072693753, 1.21631343857
100102, 0.251189490195, 3.00091738535, 1.25453991189
100103, 0.251189490195, -0.000543514521185, 1.25673473743
100104, 0.447062198158, 3.00094694352, 1.29496121075
100105, 0.447062198158, -0.000513956348616, 1.29715603629
100106, 0.642934906121, 3.00097650169, 1.33538250961
100107, 0.642934906121, -0.000484398176047, 1.33757733515
100108, 0.838807614084, 3.00100605986, 1.37580380847
100109, 0.838807614084, -0.000454840003479, 1.37799863401
100110, 1.03468032205, 3.00103561804, 1.41622510733
100111, 1.03468032205, -0.00042528183091, 1.41841993287
100112, 1.23055303001, 3.00106517621, 1.45664640619
100113, 1.23055303001, -0.000395723658341, 1.45884123173
100114, 1.42642573797, 3.00109473438, 1.49706770504
100115, 1.42642573797, -0.000366165485773, 1.49926253059
100116, 1.62229844594, 3.00112429255, 1.5374890039
100117, 1.62229844594, -0.000336607313204, 1.53968382945
100118, 1.8181711539, 3.00115385073, 1.57791030276
100119, 1.8181711539, -0.000307049140635, 1.58010512831
100120, 2.01404386186, 3.0011834089, 1.61833160162
100121, 2.01404386186, -0.000277490968067, 1.62052642717
100122, 2.20991656983, 3.00121296707, 1.65875290048
100123, 2.20991656983, -0.000247932795498, 1.66094772603
100124, 2.40578927779, 3.00124252524, 1.69917419934
100125, 2.40578927779, -0.000218374622929, 1.70136902489
100126, 2.60166198575, 3.00127208342, 1.7395954982
100127, 2.60166198575, -0.000188816450361, 1.74179032375
100128, 2.79753469372, 3.00130164159, 1.78001679706
100129, 2.79753469372, -0.000159258277792, 1.78221162261
100130, 2.99340740168, 3.00133119976, 1.82043809592
100131, 2.99340740168, -0.000129700105223, 1.82263292146
100132, 3.18928010964, 3.00136075793, 1.86085939478
100133, 3.18928010964, -0.000100141932655, 1.86305422032
100134, 3.38515281761, 3.00139031611, 1.90128069364
100135, 3.38515281761, -7.05837600856e-05, 1.90347551918
100136, -0.198070970046, 2.9007002843, 0.957687134367
100137, 3.45935472286, 2.90125220815, 1.71245230062
100138, -0.198070970046, 2.70070033777, 0.957833384811
100139, 3.45935472286, 2.70125226162, 1.71259855106
100140, -0.198070970046, 2.50070039124, 0.957979635256
100141, 3.45935472286, 2.5012523151, 1.71274480151
100142, -0.198070970046, 2.30070044472, 0.958125885701
100143, 3.45935472286, 2.30125236857, 1.71289105195
100144, -0.198070970046, 2.10070049819, 0.958272136145
100145, 3.45935472286, 2.10125242204, 1.7130373024
100146, -0.198070970046, 1.90070055166, 0.95841838659
100147, 3.45935472286, 1.90125247552, 1.71318355284
100148, -0.198070970046, 1.70070060514, 0.958564637035
100149, 3.45935472286, 1.70125252899, 1.71332980329
100150, -0.198070970046, 1.50070065861, 0.95871088748
100151, 3.45935472286, 1.50125258246, 1.71347605373
100152, -0.198070970046, 1.30070071208, 0.958857137924
100153, 3.45935472286, 1.30125263593, 1.71362230418
100154, -0.198070970046, 1.10070076555, 0.959003388369
100155, 3.45935472286, 1.10125268941, 1.71376855462
100156, -0.198070970046, 0.900700819027, 0.959149638814
100157, 3.45935472286, 0.901252742881, 1.71391480506
100158, -0.198070970046, 0.7007008725, 0.959295889258
100159, 3.45935472286, 0.701252796354, 1.71406105551
100160, -0.198070970046, 0.500700925973, 0.959442139703
100161, 3.45935472286, 0.501252849827, 1.71420730595
100162, -0.198070970046, 0.300700979446, 0.959588390148
100163, 3.45935472286, 0.3012529033, 1.7143535564
100164, -0.198070970046, 0.100701032919, 0.959734640592
100165, 3.45935472286, 0.101252956773, 1.71449980684
100166, -0.0597133063976, 3.00057180429, 0.78195200298
100167, -0.0597133063976, -0.000889095572745, 0.784146828524
100168, 0.136159401566, 3.00060136247, 0.82237330184
100169, 0.136159401566, -0.000859537400176, 0.824568127384
100170, 0.332032109529, 3.00063092064, 0.8627946007
100171, 0.332032109529, -0.000829979227607, 0.864989426243
100172, 0.527904817492, 3.00066047881, 0.903215899559
100173, 0.527904817492, -0.000800421055039, 0.905410725103
100174, 0.723777525455, 3.00069003698, 0.943637198419
100175, 0.723777525455, -0.00077086288247, 0.945832023962
100176, 0.919650233418, 3.00071959516, 0.984058497279
100177, 0.919650233418, -0.000741304709901, 0.986253322822
100178, 1.11552294138, 3.00074915333, 1.02447979614
100179, 1.11552294138, -0.000711746537333, 1.02667462168
100180, 1.31139564934, 3.0007787115, 1.064901095
100181, 1.31139564934, -0.000682188364764, 1.06709592054
100182, 1.50726835731, 3.00080826967, 1.10532239386
100183, 1.50726835731, -0.000652630192195, 1.1075172194
100184, 1.70314106527, 3.00083782785, 1.14574369272
100185, 1.70314106527, -0.000623072019627, 1.14793851826
100186, 1.89901377323, 3.00086738602, 1.18616499158
100187, 1.89901377323, -0.000593513847058, 1.18835981712
100188, 2.0948864812, 3.00089694419, 1.22658629044
100189, 2.0948864812, -0.000563955674489, 1.22878111598
100190, 2.29075918916, 3.00092650236, 1.2670075893
100191, 2.29075918916, -0.000534397501921, 1.26920241484
100192, 2.48663189712, 3.00095606054, 1.30742888816
100193, 2.48663189712, -0.000504839329352, 1.3096237137
100194, 2.68250460509, 3.00098561871, 1.34785018701
100195, 2.68250460509, -0.000475281156783, 1.35004501256
100196, 2.87837731305, 3.00101517688, 1.38827148587
100197, 2.87837731305, -0.000445722984215, 1.39046631142
100198, 3.07425002101, 3.00104473505, 1.42869278473
100199, 3.07425002101, -0.000416164811646, 1.43088761028
100200, 3.27012272898, 3.00107429323, 1.46911408359
100201, 3.27012272898, -0.000386606639077, 1.47130890914
100202, 3.46599543694, 3.0011038514, 1.50953538245
100203, 3.46599543694, -0.000357048466508, 1.511730208
100204, -0.117228350712, 2.90041381959, 0.565941823179
100205, 3.5401973422, 2.90096574344, 1.32070698943
100206, -0.117228350712, 2.70041387306, 0.566088073624
100207, 3.5401973422, 2.70096579692, 1.32085323988
100208, -0.117228350712, 2.50041392654, 0.566234324069
100209, 3.5401973422, 2.50096585039, 1.32099949032
100210, -0.117228350712, 2.30041398001, 0.566380574513
100211, 3.5401973422, 2.30096590386, 1.32114574076
100212, -0.117228350712, 2.10041403348, 0.566526824958
100213, 3.5401973422, 2.10096595734, 1.32129199121
100214, -0.117228350712, 1.90041408696, 0.566673075403
100215, 3.5401973422, 1.90096601081, 1.32143824165
100216, -0.117228350712, 1.70041414043, 0.566819325848
100217, 3.5401973422, 1.70096606428, 1.3215844921
100218, -0.117228350712, 1.5004141939, 0.566965576292
100219, 3.5401973422, 1.50096611776, 1.32173074254
100220, -0.117228350712, 1.30041424737, 0.567111826737
100221, 3.5401973422, 1.30096617123, 1.32187699299
100222, -0.117228350712, 1.10041430085, 0.567258077182
100223, 3.5401973422, 1.1009662247, 1.32202324343
100224, -0.117228350712, 0.900414354321, 0.567404327626
100225, 3.5401973422, 0.900966278174, 1.32216949388
100226, -0.117228350712, 0.700414407794, 0.567550578071
100227, 3.5401973422, 0.700966331647, 1.32231574432
100228, -0.117228350712, 0.500414461267, 0.567696828516
100229, 3.5401973422, 0.50096638512, 1.32246199477
100230, -0.117228350712, 0.30041451474, 0.56784307896
100231, 3.5401973422, 0.300966438593, 1.32260824521
100232, -0.117228350712, 0.100414568213, 0.567989329405
100233, 3.5401973422, 0.100966492066, 1.32275449566
100234, 0.0211293129361, 3.00028533959, 0.390206691793
100235, 0.0211293129361, -0.00117556027917, 0.392401517337
100236, 0.217002020899, 3.00031489776, 0.430627990653
100237, 0.217002020899, -0.0011460021066, 0.432822816196
100238, 0.412874728862, 3.00034445593, 0.471049289512
100239, 0.412874728862, -0.00111644393403, 0.473244115056
100240, 0.608747436826, 3.0003740141, 0.511470588372
100241, 0.608747436826, -0.00108688576146, 0.513665413915
100242, 0.804620144789, 3.00040357228, 0.551891887232
100243, 0.804620144789, -0.00105732758889, 0.554086712775
100244, 1.00049285275, 3.00043313045, 0.592313186091
100245, 1.00049285275, -0.00102776941632, 0.594508011635
100246, 1.19636556071, 3.00046268862, 0.632734484951
100247, 1.19636556071, -0.000998211243755, 0.634929310494
100248, 1.39223826868, 3.0004922468, 0.67315578381
100249, 1.39223826868, -0.000968653071187, 0.675350609354
100250, 1.58811097664, 3.00052180497, 0.71357708267
100251, 1.58811097664, -0.000939094898618, 0.715771908213
100252, 1.7839836846, 3.00055136314, 0.75399838153
100253, 1.7839836846, -0.000909536726049, 0.756193207073
100254, 1.97985639257, 3.00058092131, 0.794419680389
100255, 1.97985639257, -0.000879978553481, 0.796614505933
100256, 2.17572910053, 3.00061047949, 0.834840979249
100257, 2.17572910053, -0.000850420380912, 0.837035804792
100258, 2.37160180849, 3.00064003766, 0.875262278108
100259, 2.37160180849, -0.000820862208343, 0.877457103652
100260, 2.56747451646, 3.00066959583, 0.915683576968
100261, 2.56747451646, -0.000791304035775, 0.917878402511
100262, 2.76334722442, 3.000699154, 0.956104875828
100263, 2.76334722442, -0.000761745863206, 0.958299701371
100264, 2.95921993238, 3.00072871218, 0.996526174687
100265, 2.95921993238, -0.000732187690637, 0.998721000231
100266, 3.15509264035, 3.00075827035, 1.03694747355
100267, 3.15509264035, -0.000702629518069, 1.03914229909
100268, 3.35096534831, 3.00078782852, 1.07736877241
100269, 3.35096534831, -0.0006730713455, 1.07956359795
100270, 3.54683805627, 3.00081738669, 1.11779007127
100271, 3.54683805627, -0.000643513172931, 1.11998489681
100272, -0.0363857313787, 2.90012735488, 0.174196511992
100273, 3.62103996153, 2.90067927874, 0.928961678243
100274, -0.0363857313787, 2.70012740836, 0.174342762437
100275, 3.62103996153, 2.70067933221, 0.929107928688
100276, -0.0363857313787, 2.50012746183, 0.174489012881
100277, 3.62103996153, 2.50067938568, 0.929254179132
100278, -0.0363857313787, 2.3001275153, 0.174635263326
100279, 3.62103996153, 2.30067943916, 0.929400429577
100280, -0.0363857313787, 2.10012756878, 0.174781513771
100281, 3.62103996153, 2.10067949263, 0.929546680022
100282, -0.0363857313787, 1.90012762225, 0.174927764216
100283, 3.62103996153, 1.9006795461, 0.929692930467
100284, -0.0363857313787, 1.70012767572, 0.17507401466
100285, 3.62103996153, 1.70067959958, 0.929839180911
100286, -0.0363857313787, 1.5001277292, 0.175220265105
100287, 3.62103996153, 1.50067965305, 0.929985431356
100288, -0.0363857313787, 1.30012778267, 0.17536651555
100289, 3.62103996153, 1.30067970652, 0.930131681801
100290, -0.0363857313787, 1.10012783614, 0.175512765994
100291, 3.62103996153, 1.10067975999, 0.930277932245
100292, -0.0363857313787, 0.900127889614, 0.175659016439
100293, 3.62103996153, 0.900679813468, 0.93042418269
100294, -0.0363857313787, 0.700127943087, 0.175805266884
100295, 3.62103996153, 0.700679866941, 0.930570433135
100296, -0.0363857313787, 0.50012799656, 0.175951517328
100297, 3.62103996153, 0.500679920414, 0.930716683579
100298, -0.0363857313787, 0.300128050033, 0.176097767773
100299, 3.62103996153, 0.300679973887, 0.930862934024
100300, -0.0363857313787, 0.100128103506, 0.176244018218
100301, 3.62103996153, 0.10068002736, 0.931009184469
100302, 0.10197193227, 2.99999887488, -0.00153861939413
100303, 0.10197193227, -0.00146202498559, 0.000656206149317
100304, 0.297844640233, 3.00002843305, 0.0388826794655
100305, 0.297844640233, -0.00143246681302, 0.0410775050089
100306, 0.493717348196, 3.00005799123, 0.0793039783251
100307, 0.493717348196, -0.00140290864045, 0.0814988038685
100308, 0.689590056159, 3.0000875494, 0.119725277185
100309, 0.689590056159, -0.00137335046788, 0.121920102728
100310, 0.885462764122, 3.00011710757, 0.160146576044
100311, 0.885462764122, -0.00134379229532, 0.162341401588
100312, 1.08133547209, 3.00014666574, 0.200567874904
100313, 1.08133547209, -0.00131423412275, 0.202762700447
100314, 1.27720818005, 3.00017622392, 0.240989173764
100315, 1.27720818005, -0.00128467595018, 0.243183999307
100316, 1.47308088801, 3.00020578209, 0.281410472623
100317, 1.47308088801, -0.00125511777761, 0.283605298167
100318, 1.66895359597, 3.00023534026, 0.321831771483
100319, 1.66895359597, -0.00122555960504, 0.324026597026
100320, 1.86482630394, 3.00026489843, 0.362253070342
100321, 1.86482630394, -0.00119600143247, 0.364447895886
100322, 2.0606990119, 3.00029445661, 0.402674369202
100323, 2.0606990119, -0.0011664432599, 0.404869194745
100324, 2.25657171986, 3.00032401478, 0.443095668062
100325, 2.25657171986, -0.00113688508734, 0.445290493605
100326, 2.45244442783, 3.00035357295, 0.483516966921
100327, 2.45244442783, -0.00110732691477, 0.485711792465
100328, 2.64831713579, 3.00038313112, 0.523938265781
100329, 2.64831713579, -0.0010777687422, 0.526133091324
100330, 2.84418984375, 3.0004126893, 0.56435956464
100331, 2.84418984375, -0.00104821056963, 0.566554390184
100332, 3.04006255172, 3.00044224747, 0.6047808635
100333, 3.04006255172, -0.00101865239706, 0.606975689043
100334, 3.23593525968, 3.00047180564, 0.64520216236
100335, 3.23593525968, -0.000989094224492, 0.647396987903
100336, 3.43180796764, 3.00050136381, 0.685623461219
100337, 3.43180796764, -0.000959536051923, 0.687818286763
100338, 3.62768067561, 3.00053092199, 0.726044760079
100339, 3.62768067561, -0.000929977879354, 0.728239585622
100340, 0.044456887955, 2.89984089018, -0.217548799195
100341, 3.70188258086, 2.90039281403, 0.537216367056
100342, 0.044456887955, 2.69984094365, -0.217402548751
100343, 3.70188258086, 2.7003928675, 0.5373626175
100344, 0.044456887955, 2.49984099712, -0.217256298306
100345, 3.70188258086, 2.50039292098, 0.537508867945
100346, 0.044456887955, 2.2998410506, -0.217110047861
100347, 3.70188258086, 2.30039297445, 0.53765511839
100348, 0.044456887955, 2.09984110407, -0.216963797416
100349, 3.70188258086, 2.10039302792, 0.537801368835
100350, 0.044456887955, 1.89984115754, -0.216817546972
100351, 3.70188258086, 1.9003930814, 0.537947619279
100352, 0.044456887955, 1.69984121102, -0.216671296527
100353, 3.70188258086, 1.70039313487, 0.538093869724
100354, 0.044456887955, 1.49984126449, -0.216525046082
100355, 3.70188258086, 1.50039318834, 0.538240120169
100356, 0.044456887955, 1.29984131796, -0.216378795638
100357, 3.70188258086, 1.30039324182, 0.538386370613
100358, 0.044456887955, 1.09984137143, -0.216232545193
100359, 3.70188258086, 1.10039329529, 0.538532621058
100360, 0.044456887955, 0.899841424908, -0.216086294748
100361, 3.70188258086, 0.900393348761, 0.538678871503
100362, 0.044456887955, 0.699841478381, -0.215940044304
100363, 3.70188258086, 0.700393402234, 0.538825121947
100364, 0.044456887955, 0.499841531854, -0.215793793859
100365, 3.70188258086, 0.500393455707, 0.538971372392
100366, 0.044456887955, 0.299841585327, -0.215647543414
100367, 3.70188258086, 0.30039350918, 0.539117622837
100368, 0.044456887955, 0.0998416387997, -0.21550129297
100369, 3.70188258086, 0.100393562653, 0.539263873281
100370, 0.182814551603, 2.99971241017, -0.393283930581
100371, 0.182814551603, -0.00174848969201, -0.391089105038
100372, 0.378687259567, 2.99974196835, -0.352862631722
100373, 0.378687259567, -0.00171893151944, -0.350667806178
100374, 0.57455996753, 2.99977152652, -0.312441332862
100375, 0.57455996753, -0.00168937334688, -0.310246507319
100376, 0.770432675493, 2.99980108469, -0.272020034003
100377, 0.770432675493, -0.00165981517431, -0.269825208459
100378, 0.966305383456, 2.99983064286, -0.231598735143
100379, 0.966305383456, -0.00163025700174, -0.2294039096
100380, 1.16217809142, 2.99986020104, -0.191177436283
100381, 1.16217809142, -0.00160069882917, -0.18898261074
100382, 1.35805079938, 2.99988975921, -0.150756137424
100383, 1.35805079938, -0.0015711406566, -0.14856131188
100384, 1.55392350735, 2.99991931738, -0.110334838564
100385, 1.55392350735, -0.00154158248403, -0.108140013021
100386, 1.74979621531, 2.99994887555, -0.0699135397046
100387, 1.74979621531, -0.00151202431146, -0.0677187141611
100388, 1.94566892327, 2.99997843373, -0.029492240845
100389, 1.94566892327, -0.0014824661389, -0.0272974153015
100390, 2.14154163123, 3.0000079919, 0.0109290580146
100391, 2.14154163123, -0.00145290796633, 0.0131238835581
100392, 2.3374143392, 3.00003755007, 0.0513503568742
100393, 2.3374143392, -0.00142334979376, 0.0535451824177
100394, 2.53328704716, 3.00006710825, 0.0917716557338
100395, 2.53328704716, -0.00139379162119, 0.0939664812773
100396, 2.72915975512, 3.00009666642, 0.132192954593
100397, 2.72915975512, -0.00136423344862, 0.134387780137
100398, 2.92503246309, 3.00012622459, 0.172614253453
100399, 2.92503246309, -0.00133467527605, 0.174809078996
100400, 3.12090517105, 3.00015578276, 0.213035552313
100401, 3.12090517105, -0.00130511710348, 0.215230377856
100402, 3.31677787901, 3.00018534094, 0.253456851172
100403, 3.31677787901, -0.00127555893091, 0.255651676716
100404, 3.51265058698, 3.00021489911, 0.293878150032
100405, 3.51265058698, -0.00124600075835, 0.296072975575
100406, 3.70852329494, 3.00024445728, 0.334299448891
100407, 3.70852329494, -0.00121644258578, 0.336494274435
*Element, type=T3D2, elset=EMBMESH_FIBERS
100000, 100000,100001
100001, 100002,100003
100002, 100004,100005
100003, 100006,100007
100004, 100008,100009
100005, 100010,100011
100006, 100012,100013
100007, 100014,100015
100008, 100016,100017
100009, 100018,100019
100010, 100020,100021
100011, 100022,100023
100012, 100024,100025
100013, 100026,100027
100014, 100028,100029
100015, 100030,100031
100016, 100032,100033
100017, 100034,100035
100018, 100036,100037
100019, 100038,100039
100020, 100040,100041
100021, 100042,100043
100022, 100044,100045
100023, 100046,100047
100024, 100048,100049
100025, 100050,100051
100026, 100052,100053
100027, 100054,100055
100028, 100056,100057
100029, 100058,100059
100030, 100060,100061
100031, 100062,100063
100032, 100064,100065
100033, 100066,100067
100034, 100068,100069
100035, 100070,100071
100036, 100072,100073
100037, 100074,100075
100038, 100076,100077
100039, 100078,100079
100040, 100080,100081
100041, 100082,100083
100042, 100084,100085
100043, 100086,100087
100044, 100088,100089
100045, 100090,100091
100046, 100092,100093
100047, 100094,100095
100048, 100096,100097
100049, 100098,100099
100050, 100100,100101
100051, 100102,100103
100052, 100104,100105
100053, 100106,100107
100054, 100108,100109
100055, 100110,100111
100056, 100112,100113
100057, 100114,100115
100058, 100116,100117
100059, 100118,100119
100060, 100120,100121
100061, 100122,100123
100062, 100124,100125
100063, 100126,100127
100064, 100128,100129
100065, 100130,100131
100066, 100132,100133
100067, 100134,100135
100068, 100136,100137
100069, 100138,100139
100070, 100140,100141
100071, 100142,100143
100072, 100144,100145
100073, 100146,100147
100074, 100148,100149
100075, 100150,100151
100076, 100152,100153
100077, 100154,100155
100078, 100156,100157
100079, 100158,100159
100080, 100160,100161
100081, 100162,100163
100082, 100164,100165
100083, 100166,100167
100084, 100168,100169
100085, 100170,100171
100086, 100172,100173
100087, 100174,100175
100088, 100176,100177
100089, 100178,100179
100090, 100180,100181
100091, 100182,100183
100092, 100184,100185
100093, 100186,100187
100094, 100188,100189
100095, 100190,100191
100096, 100192,100193
100097, 100194,100195
100098, 100196,100197
100099, 100198,100199
100100, 100200,100201
100101, 100202,100203
100102, 100204,100205
100103, 100206,100207
100104, 100208,100209
100105, 100210,100211
100106, 100212,100213
100107, 100214,100215
100108, 100216,100217
100109, 100218,100219
100110, 100220,100221
100111, 100222,100223
100112, 100224,100225
100113, 100226,100227
100114, 100228,100229
100115, 100230,100231
100116, 100232,100233
100117, 100234,100235
100118, 100236,100237
100119, 100238,100239
100120, 100240,100241
100121, 100242,100243
100122, 100244,100245
100123, 100246,100247
100124, 100248,100249
100125, 100250,100251
100126, 100252,100253
100127, 100254,100255
100128, 100256,100257
100129, 100258,100259
100130, 100260,100261
100131, 100262,100263
100132, 100264,100265
100133, 100266,100267
100134, 100268,100269
100135, 100270,100271
100136, 100272,100273
100137, 100274,100275
100138, 100276,100277
100139, 100278,100279
100140, 100280,100281
100141, 100282,100283
100142, 100284,100285
100143, 100286,100287
100144, 100288,100289
100145, 100290,100291
100146, 100292,100293
100147, 100294,100295
100148, 100296,100297
100149, 100298,100299
100150, 100300,100301
100151, 100302,100303
100152, 100304,100305
100153, 100306,100307
100154, 100308,100309
100155, 100310,100311
100156, 100312,100313
100157, 100314,100315
100158, 100316,100317
100159, 100318,100319
100160, 100320,100321
100161, 100322,100323
100162, 100324,100325
100163, 100326,100327
100164, 100328,100329
100165, 100330,100331
100166, 100332,100333
100167, 100334,100335
100168, 100336,100337
100169, 100338,100339
100170, 100340,100341
100171, 100342,100343
100172, 100344,100345
100173, 100346,100347
100174, 100348,100349
100175, 100350,100351
100176, 100352,100353
100177, 100354,100355
100178, 100356,100357
100179, 100358,100359
100180, 100360,100361
100181, 100362,100363
100182, 100364,100365
100183, 100366,100367
100184, 100368,100369
100185, 100370,100371
100186, 100372,100373
100187, 100374,100375
100188, 100376,100377
100189, 100378,100379
100190, 100380,100381
100191, 100382,100383
100192, 100384,100385
100193, 100386,100387
100194, 100388,100389
100195, 100390,100391
100196, 100392,100393
100197, 100394,100395
100198, 100396,100397
100199, 100398,100399
100200, 100400,100401
100201, 100402,100403
100202, 100404,100405
100203, 100406,100407
*Solid Section, elset=EMBMESH_FIBERS, material=EMBMESH_FIBER
0.0314159265358979
*Material, name=EMBMESH_FIBER
*Elastic
1., 0.3
*Embedded Element, host elset=HOST
EMBMESH_FIBERS
