*Heading
*Preprint, echo=NO, model=YES, history=NO, contact=NO
** verification deck single_uniax_along_d0.35_src.inp
*Part, name=PLATE
*Node
1, 0, 0, 0
2, 1, 0, 0
3, 0, 1, 0
4, 1, 1, 0
5, 0, 0, 1
6, 1, 0, 1
7, 0, 1, 1
8, 1, 1, 1
*Element, type=C3D8R, elset=HOST
1, 1, 2, 4, 3, 5, 6, 8, 7
*Solid Section, elset=HOST, material=MATRIX
,
*End Part
*Assembly, name=Assembly
*Instance, name=PLATE-1, part=PLATE
*End Instance
*Nset, nset=LEFT, instance=PLATE-1
1, 3, 5, 7
*Nset, nset=RIGHT, instance=PLATE-1
2, 4, 6, 8
*Nset, nset=BOTTOM, instance=PLATE-1
1, 2, 3, 4
*Nset, nset=TOP, instance=PLATE-1
5, 6, 7, 8
*Nset, nset=FRONT, instance=PLATE-1
1, 2, 5, 6
*Nset, nset=BACK, instance=PLATE-1
3, 4, 7, 8
*Nset, nset=ORIGIN, instance=PLATE-1
1
*Nset, nset=ALLN, instance=PLATE-1
1, 2, 3, 4, 5, 6, 7, 8
*End Assembly
** embmesh generated fibers
*Node, nset=EMBMESH_NODES
100000, 0, 0.175, 0.175
100001, 1, 0.175, 0.175
100002, 0, 0.525, 0.175
100003, 1, 0.525, 0.175
100004, 0, 0.875, 0.175
100005, 1, 0.875, 0.175
100006, 0.175, 0, 0.525
100007, 0.175, 1, 0.525
100008, 0.525, 0, 0.525
100009, 0.525, 1, 0.525
100010, 0.875, 0, 0.525
100011, 0.875, 1, 0.525
*Element, type=T3D2, elset=EMBMESH_FIBERS
100000, 100000,100001
100001, 100002,100003
100002, 100004,100005
100003, 100006,100007
100004, 100008,100009
100005, 100010,100011
*Solid Section, elset=EMBMESH_FIBERS, material=EMBMESH_FIBER
0.0962112750161874
*Material, name=EMBMESH_FIBER
*Elastic
1., 0.3
*Embedded Element, host elset=HOST
EMBMESH_FIBERS
