*Heading
** verification deck t16_perf1.inp
*Part, name=PLATE
*Node
1, 0, 0, 0
2, 1, 0, 0
3, 2, 0, 0
4, 3, 0, 0
5, 4, 0, 0
6, 5, 0, 0
7, 6, 0, 0
8, 7, 0, 0
9, 8, 0, 0
10, 9, 0, 0
11, 10, 0, 0
12, 0, 1, 0
13, 1, 1, 0
14, 2, 1, 0
15, 3, 1, 0
16, 4, 1, 0
17, 5, 1, 0
18, 6, 1, 0
19, 7, 1, 0
20, 8, 1, 0
21, 9, 1, 0
22, 10, 1, 0
23, 0, 2, 0
24, 1, 2, 0
25, 2, 2, 0
26, 3, 2, 0
27, 4, 2, 0
28, 5, 2, 0
29, 6, 2, 0
30, 7, 2, 0
31, 8, 2, 0
32, 9, 2, 0
33, 10, 2, 0
34, 0, 3, 0
35, 1, 3, 0
36, 2, 3, 0
37, 3, 3, 0
38, 4, 3, 0
39, 5, 3, 0
40, 6, 3, 0
41, 7, 3, 0
42, 8, 3, 0
43, 9, 3, 0
44, 10, 3, 0
45, 0, 4, 0
46, 1, 4, 0
47, 2, 4, 0
48, 3, 4, 0
49, 4, 4, 0
50, 5, 4, 0
51, 6, 4, 0
52, 7, 4, 0
53, 8, 4, 0
54, 9, 4, 0
55, 10, 4, 0
56, 0, 5, 0
57, 1, 5, 0
58, 2, 5, 0
59, 3, 5, 0
60, 4, 5, 0
61, 5, 5, 0
62, 6, 5, 0
63, 7, 5, 0
64, 8, 5, 0
65, 9, 5, 0
66, 10, 5, 0
67, 0, 6, 0
68, 1, 6, 0
69, 2, 6, 0
70, 3, 6, 0
71, 4, 6, 0
72, 5, 6, 0
73, 6, 6, 0
74, 7, 6, 0
75, 8, 6, 0
76, 9, 6, 0
77, 10, 6, 0
78, 0, 7, 0
79, 1, 7, 0
80, 2, 7, 0
81, 3, 7, 0
82, 4, 7, 0
83, 5, 7, 0
84, 6, 7, 0
85, 7, 7, 0
86, 8, 7, 0
87, 9, 7, 0
88, 10, 7, 0
89, 0, 8, 0
90, 1, 8, 0
91, 2, 8, 0
92, 3, 8, 0
93, 4, 8, 0
94, 5, 8, 0
95, 6, 8, 0
96, 7, 8, 0
97, 8, 8, 0
98, 9, 8, 0
99, 10, 8, 0
100, 0, 9, 0
101, 1, 9, 0
102, 2, 9, 0
103, 3, 9, 0
104, 4, 9, 0
105, 5, 9, 0
106, 6, 9, 0
107, 7, 9, 0
108, 8, 9, 0
109, 9, 9, 0
110, 10, 9, 0
111, 0, 10, 0
112, 1, 10, 0
113, 2, 10, 0
114, 3, 10, 0
115, 4, 10, 0
116, 5, 10, 0
117, 6, 10, 0
118, 7, 10, 0
119, 8, 10, 0
120, 9, 10, 0
121, 10, 10, 0
122, 0, 0, 0.5
123, 1, 0, 0.5
124, 2, 0, 0.5
125, 3, 0, 0.5
126, 4, 0, 0.5
127, 5, 0, 0.5
128, 6, 0, 0.5
129, 7, 0, 0.5
130, 8, 0, 0.5
131, 9, 0, 0.5
132, 10, 0, 0.5
133, 0, 1, 0.5
134, 1, 1, 0.5
135, 2, 1, 0.5
136, 3, 1, 0.5
137, 4, 1, 0.5
138, 5, 1, 0.5
139, 6, 1, 0.5
140, 7, 1, 0.5
141, 8, 1, 0.5
142, 9, 1, 0.5
143, 10, 1, 0.5
144, 0, 2, 0.5
145, 1, 2, 0.5
146, 2, 2, 0.5
147, 3, 2, 0.5
148, 4, 2, 0.5
149, 5, 2, 0.5
150, 6, 2, 0.5
151, 7, 2, 0.5
152, 8, 2, 0.5
153, 9, 2, 0.5
154, 10, 2, 0.5
155, 0, 3, 0.5
156, 1, 3, 0.5
157, 2, 3, 0.5
158, 3, 3, 0.5
159, 4, 3, 0.5
160, 5, 3, 0.5
161, 6, 3, 0.5
162, 7, 3, 0.5
163, 8, 3, 0.5
164, 9, 3, 0.5
165, 10, 3, 0.5
166, 0, 4, 0.5
167, 1, 4, 0.5
168, 2, 4, 0.5
169, 3, 4, 0.5
170, 4, 4, 0.5
171, 5, 4, 0.5
172, 6, 4, 0.5
173, 7, 4, 0.5
174, 8, 4, 0.5
175, 9, 4, 0.5
176, 10, 4, 0.5
177, 0, 5, 0.5
178, 1, 5, 0.5
179, 2, 5, 0.5
180, 3, 5, 0.5
181, 4, 5, 0.5
182, 5, 5, 0.5
183, 6, 5, 0.5
184, 7, 5, 0.5
185, 8, 5, 0.5
186, 9, 5, 0.5
187, 10, 5, 0.5
188, 0, 6, 0.5
189, 1, 6, 0.5
190, 2, 6, 0.5
191, 3, 6, 0.5
192, 4, 6, 0.5
193, 5, 6, 0.5
194, 6, 6, 0.5
195, 7, 6, 0.5
196, 8, 6, 0.5
197, 9, 6, 0.5
198, 10, 6, 0.5
199, 0, 7, 0.5
200, 1, 7, 0.5
201, 2, 7, 0.5
202, 3, 7, 0.5
203, 4, 7, 0.5
204, 5, 7, 0.5
205, 6, 7, 0.5
206, 7, 7, 0.5
207, 8, 7, 0.5
208, 9, 7, 0.5
209, 10, 7, 0.5
210, 0, 8, 0.5
211, 1, 8, 0.5
212, 2, 8, 0.5
213, 3, 8, 0.5
214, 4, 8, 0.5
215, 5, 8, 0.5
216, 6, 8, 0.5
217, 7, 8, 0.5
218, 8, 8, 0.5
219, 9, 8, 0.5
220, 10, 8, 0.5
221, 0, 9, 0.5
222, 1, 9, 0.5
223, 2, 9, 0.5
224, 3, 9, 0.5
225, 4, 9, 0.5
226, 5, 9, 0.5
227, 6, 9, 0.5
228, 7, 9, 0.5
229, 8, 9, 0.5
230, 9, 9, 0.5
231, 10, 9, 0.5
232, 0, 10, 0.5
233, 1, 10, 0.5
234, 2, 10, 0.5
235, 3, 10, 0.5
236, 4, 10, 0.5
237, 5, 10, 0.5
238, 6, 10, 0.5
239, 7, 10, 0.5
240, 8, 10, 0.5
241, 9, 10, 0.5
242, 10, 10, 0.5
243, 0, 0, 1
244, 1, 0, 1
245, 2, 0, 1
246, 3, 0, 1
247, 4, 0, 1
248, 5, 0, 1
249, 6, 0, 1
250, 7, 0, 1
251, 8, 0, 1
252, 9, 0, 1
253, 10, 0, 1
254, 0, 1, 1
255, 1, 1, 1
256, 2, 1, 1
257, 3, 1, 1
258, 4, 1, 1
259, 5, 1, 1
260, 6, 1, 1
261, 7, 1, 1
262, 8, 1, 1
263, 9, 1, 1
264, 10, 1, 1
265, 0, 2, 1
266, 1, 2, 1
267, 2, 2, 1
268, 3, 2, 1
269, 4, 2, 1
270, 5, 2, 1
271, 6, 2, 1
272, 7, 2, 1
273, 8, 2, 1
274, 9, 2, 1
275, 10, 2, 1
276, 0, 3, 1
277, 1, 3, 1
278, 2, 3, 1
279, 3, 3, 1
280, 4, 3, 1
281, 5, 3, 1
282, 6, 3, 1
283, 7, 3, 1
284, 8, 3, 1
285, 9, 3, 1
286, 10, 3, 1
287, 0, 4, 1
288, 1, 4, 1
289, 2, 4, 1
290, 3, 4, 1
291, 4, 4, 1
292, 5, 4, 1
293, 6, 4, 1
294, 7, 4, 1
295, 8, 4, 1
296, 9, 4, 1
297, 10, 4, 1
298, 0, 5, 1
299, 1, 5, 1
300, 2, 5, 1
301, 3, 5, 1
302, 4, 5, 1
303, 5, 5, 1
304, 6, 5, 1
305, 7, 5, 1
306, 8, 5, 1
307, 9, 5, 1
308, 10, 5, 1
309, 0, 6, 1
310, 1, 6, 1
311, 2, 6, 1
312, 3, 6, 1
313, 4, 6, 1
314, 5, 6, 1
315, 6, 6, 1
316, 7, 6, 1
317, 8, 6, 1
318, 9, 6, 1
319, 10, 6, 1
320, 0, 7, 1
321, 1, 7, 1
322, 2, 7, 1
323, 3, 7, 1
324, 4, 7, 1
325, 5, 7, 1
326, 6, 7, 1
327, 7, 7, 1
328, 8, 7, 1
329, 9, 7, 1
330, 10, 7, 1
331, 0, 8, 1
332, 1, 8, 1
333, 2, 8, 1
334, 3, 8, 1
335, 4, 8, 1
336, 5, 8, 1
337, 6, 8, 1
338, 7, 8, 1
339, 8, 8, 1
340, 9, 8, 1
341, 10, 8, 1
342, 0, 9, 1
343, 1, 9, 1
344, 2, 9, 1
345, 3, 9, 1
346, 4, 9, 1
347, 5, 9, 1
348, 6, 9, 1
349, 7, 9, 1
350, 8, 9, 1
351, 9, 9, 1
352, 10, 9, 1
353, 0, 10, 1
354, 1, 10, 1
355, 2, 10, 1
356, 3, 10, 1
357, 4, 10, 1
358, 5, 10, 1
359, 6, 10, 1
360, 7, 10, 1
361, 8, 10, 1
362, 9, 10, 1
363, 10, 10, 1
364, 0, 0, 1.5
365, 1, 0, 1.5
366, 2, 0, 1.5
367, 3, 0, 1.5
368, 4, 0, 1.5
369, 5, 0, 1.5
370, 6, 0, 1.5
371, 7, 0, 1.5
372, 8, 0, 1.5
373, 9, 0, 1.5
374, 10, 0, 1.5
375, 0, 1, 1.5
376, 1, 1, 1.5
377, 2, 1, 1.5
378, 3, 1, 1.5
379, 4, 1, 1.5
380, 5, 1, 1.5
381, 6, 1, 1.5
382, 7, 1, 1.5
383, 8, 1, 1.5
384, 9, 1, 1.5
385, 10, 1, 1.5
386, 0, 2, 1.5
387, 1, 2, 1.5
388, 2, 2, 1.5
389, 3, 2, 1.5
390, 4, 2, 1.5
391, 5, 2, 1.5
392, 6, 2, 1.5
393, 7, 2, 1.5
394, 8, 2, 1.5
395, 9, 2, 1.5
396, 10, 2, 1.5
397, 0, 3, 1.5
398, 1, 3, 1.5
399, 2, 3, 1.5
400, 3, 3, 1.5
401, 4, 3, 1.5
402, 5, 3, 1.5
403, 6, 3, 1.5
404, 7, 3, 1.5
405, 8, 3, 1.5
406, 9, 3, 1.5
407, 10, 3, 1.5
408, 0, 4, 1.5
409, 1, 4, 1.5
410, 2, 4, 1.5
411, 3, 4, 1.5
412, 4, 4, 1.5
413, 5, 4, 1.5
414, 6, 4, 1.5
415, 7, 4, 1.5
416, 8, 4, 1.5
417, 9, 4, 1.5
418, 10, 4, 1.5
419, 0, 5, 1.5
420, 1, 5, 1.5
421, 2, 5, 1.5
422, 3, 5, 1.5
423, 4, 5, 1.5
424, 5, 5, 1.5
425, 6, 5, 1.5
426, 7, 5, 1.5
427, 8, 5, 1.5
428, 9, 5, 1.5
429, 10, 5, 1.5
430, 0, 6, 1.5
431, 1, 6, 1.5
432, 2, 6, 1.5
433, 3, 6, 1.5
434, 4, 6, 1.5
435, 5, 6, 1.5
436, 6, 6, 1.5
437, 7, 6, 1.5
438, 8, 6, 1.5
439, 9, 6, 1.5
440, 10, 6, 1.5
441, 0, 7, 1.5
442, 1, 7, 1.5
443, 2, 7, 1.5
444, 3, 7, 1.5
445, 4, 7, 1.5
446, 5, 7, 1.5
447, 6, 7, 1.5
448, 7, 7, 1.5
449, 8, 7, 1.5
450, 9, 7, 1.5
451, 10, 7, 1.5
452, 0, 8, 1.5
453, 1, 8, 1.5
454, 2, 8, 1.5
455, 3, 8, 1.5
456, 4, 8, 1.5
457, 5, 8, 1.5
458, 6, 8, 1.5
459, 7, 8, 1.5
460, 8, 8, 1.5
461, 9, 8, 1.5
462, 10, 8, 1.5
463, 0, 9, 1.5
464, 1, 9, 1.5
465, 2, 9, 1.5
466, 3, 9, 1.5
467, 4, 9, 1.5
468, 5, 9, 1.5
469, 6, 9, 1.5
470, 7, 9, 1.5
471, 8, 9, 1.5
472, 9, 9, 1.5
473, 10, 9, 1.5
474, 0, 10, 1.5
475, 1, 10, 1.5
476, 2, 10, 1.5
477, 3, 10, 1.5
478, 4, 10, 1.5
479, 5, 10, 1.5
480, 6, 10, 1.5
481, 7, 10, 1.5
482, 8, 10, 1.5
483, 9, 10, 1.5
484, 10, 10, 1.5
485, 0, 0, 2
486, 1, 0, 2
487, 2, 0, 2
488, 3, 0, 2
489, 4, 0, 2
490, 5, 0, 2
491, 6, 0, 2
492, 7, 0, 2
493, 8, 0, 2
494, 9, 0, 2
495, 10, 0, 2
496, 0, 1, 2
497, 1, 1, 2
498, 2, 1, 2
499, 3, 1, 2
500, 4, 1, 2
501, 5, 1, 2
502, 6, 1, 2
503, 7, 1, 2
504, 8, 1, 2
505, 9, 1, 2
506, 10, 1, 2
507, 0, 2, 2
508, 1, 2, 2
509, 2, 2, 2
510, 3, 2, 2
511, 4, 2, 2
512, 5, 2, 2
513, 6, 2, 2
514, 7, 2, 2
515, 8, 2, 2
516, 9, 2, 2
517, 10, 2, 2
518, 0, 3, 2
519, 1, 3, 2
520, 2, 3, 2
521, 3, 3, 2
522, 4, 3, 2
523, 5, 3, 2
524, 6, 3, 2
525, 7, 3, 2
526, 8, 3, 2
527, 9, 3, 2
528, 10, 3, 2
529, 0, 4, 2
530, 1, 4, 2
531, 2, 4, 2
532, 3, 4, 2
533, 4, 4, 2
534, 5, 4, 2
535, 6, 4, 2
536, 7, 4, 2
537, 8, 4, 2
538, 9, 4, 2
539, 10, 4, 2
540, 0, 5, 2
541, 1, 5, 2
542, 2, 5, 2
543, 3, 5, 2
544, 4, 5, 2
545, 5, 5, 2
546, 6, 5, 2
547, 7, 5, 2
548, 8, 5, 2
549, 9, 5, 2
550, 10, 5, 2
551, 0, 6, 2
552, 1, 6, 2
553, 2, 6, 2
554, 3, 6, 2
555, 4, 6, 2
556, 5, 6, 2
557, 6, 6, 2
558, 7, 6, 2
559, 8, 6, 2
560, 9, 6, 2
561, 10, 6, 2
562, 0, 7, 2
563, 1, 7, 2
564, 2, 7, 2
565, 3, 7, 2
566, 4, 7, 2
567, 5, 7, 2
568, 6, 7, 2
569, 7, 7, 2
570, 8, 7, 2
571, 9, 7, 2
572, 10, 7, 2
573, 0, 8, 2
574, 1, 8, 2
575, 2, 8, 2
576, 3, 8, 2
577, 4, 8, 2
578, 5, 8, 2
579, 6, 8, 2
580, 7, 8, 2
581, 8, 8, 2
582, 9, 8, 2
583, 10, 8, 2
584, 0, 9, 2
585, 1, 9, 2
586, 2, 9, 2
587, 3, 9, 2
588, 4, 9, 2
589, 5, 9, 2
590, 6, 9, 2
591, 7, 9, 2
592, 8, 9, 2
593, 9, 9, 2
594, 10, 9, 2
595, 0, 10, 2
596, 1, 10, 2
597, 2, 10, 2
598, 3, 10, 2
599, 4, 10, 2
600, 5, 10, 2
601, 6, 10, 2
602, 7, 10, 2
603, 8, 10, 2
604, 9, 10, 2
605, 10, 10, 2
*Element, type=C3D8R, elset=HOST
1, 1, 2, 13, 12, 122, 123, 134, 133
2, 2, 3, 14, 13, 123, 124, 135, 134
3, 3, 4, 15, 14, 124, 125, 136, 135
4, 4, 5, 16, 15, 125, 126, 137, 136
5, 5, 6, 17, 16, 126, 127, 138, 137
6, 6, 7, 18, 17, 127, 128, 139, 138
7, 7, 8, 19, 18, 128, 129, 140, 139
8, 8, 9, 20, 19, 129, 130, 141, 140
9, 9, 10, 21, 20, 130, 131, 142, 141
10, 10, 11, 22, 21, 131, 132, 143, 142
11, 12, 13, 24, 23, 133, 134, 145, 144
12, 13, 14, 25, 24, 134, 135, 146, 145
13, 14, 15, 26, 25, 135, 136, 147, 146
14, 15, 16, 27, 26, 136, 137, 148, 147
15, 16, 17, 28, 27, 137, 138, 149, 148
16, 17, 18, 29, 28, 138, 139, 150, 149
17, 18, 19, 30, 29, 139, 140, 151, 150
18, 19, 20, 31, 30, 140, 141, 152, 151
19, 20, 21, 32, 31, 141, 142, 153, 152
20, 21, 22, 33, 32, 142, 143, 154, 153
21, 23, 24, 35, 34, 144, 145, 156, 155
22, 24, 25, 36, 35, 145, 146, 157, 156
23, 25, 26, 37, 36, 146, 147, 158, 157
24, 26, 27, 38, 37, 147, 148, 159, 158
25, 27, 28, 39, 38, 148, 149, 160, 159
26, 28, 29, 40, 39, 149, 150, 161, 160
27, 29, 30, 41, 40, 150, 151, 162, 161
28, 30, 31, 42, 41, 151, 152, 163, 162
29, 31, 32, 43, 42, 152, 153, 164, 163
30, 32, 33, 44, 43, 153, 154, 165, 164
31, 34, 35, 46, 45, 155, 156, 167, 166
32, 35, 36, 47, 46, 156, 157, 168, 167
33, 36, 37, 48, 47, 157, 158, 169, 168
34, 37, 38, 49, 48, 158, 159, 170, 169
35, 38, 39, 50, 49, 159, 160, 171, 170
36, 39, 40, 51, 50, 160, 161, 172, 171
37, 40, 41, 52, 51, 161, 162, 173, 172
38, 41, 42, 53, 52, 162, 163, 174, 173
39, 42, 43, 54, 53, 163, 164, 175, 174
40, 43, 44, 55, 54, 164, 165, 176, 175
41, 45, 46, 57, 56, 166, 167, 178, 177
42, 46, 47, 58, 57, 167, 168, 179, 178
43, 47, 48, 59, 58, 168, 169, 180, 179
44, 48, 49, 60, 59, 169, 170, 181, 180
45, 49, 50, 61, 60, 170, 171, 182, 181
46, 50, 51, 62, 61, 171, 172, 183, 182
47, 51, 52, 63, 62, 172, 173, 184, 183
48, 52, 53, 64, 63, 173, 174, 185, 184
49, 53, 54, 65, 64, 174, 175, 186, 185
50, 54, 55, 66, 65, 175, 176, 187, 186
51, 56, 57, 68, 67, 177, 178, 189, 188
52, 57, 58, 69, 68, 178, 179, 190, 189
53, 58, 59, 70, 69, 179, 180, 191, 190
54, 59, 60, 71, 70, 180, 181, 192, 191
55, 60, 61, 72, 71, 181, 182, 193, 192
56, 61, 62, 73, 72, 182, 183, 194, 193
57, 62, 63, 74, 73, 183, 184, 195, 194
58, 63, 64, 75, 74, 184, 185, 196, 195
59, 64, 65, 76, 75, 185, 186, 197, 196
60, 65, 66, 77, 76, 186, 187, 198, 197
61, 67, 68, 79, 78, 188, 189, 200, 199
62, 68, 69, 80, 79, 189, 190, 201, 200
63, 69, 70, 81, 80, 190, 191, 202, 201
64, 70, 71, 82, 81, 191, 192, 203, 202
65, 71, 72, 83, 82, 192, 193, 204, 203
66, 72, 73, 84, 83, 193, 194, 205, 204
67, 73, 74, 85, 84, 194, 195, 206, 205
68, 74, 75, 86, 85, 195, 196, 207, 206
69, 75, 76, 87, 86, 196, 197, 208, 207
70, 76, 77, 88, 87, 197, 198, 209, 208
71, 78, 79, 90, 89, 199, 200, 211, 210
72, 79, 80, 91, 90, 200, 201, 212, 211
73, 80, 81, 92, 91, 201, 202, 213, 212
74, 81, 82, 93, 92, 202, 203, 214, 213
75, 82, 83, 94, 93, 203, 204, 215, 214
76, 83, 84, 95, 94, 204, 205, 216, 215
77, 84, 85, 96, 95, 205, 206, 217, 216
78, 85, 86, 97, 96, 206, 207, 218, 217
79, 86, 87, 98, 97, 207, 208, 219, 218
80, 87, 88, 99, 98, 208, 209, 220, 219
81, 89, 90, 101, 100, 210, 211, 222, 221
82, 90, 91, 102, 101, 211, 212, 223, 222
83, 91, 92, 103, 102, 212, 213, 224, 223
84, 92, 93, 104, 103, 213, 214, 225, 224
85, 93, 94, 105, 104, 214, 215, 226, 225
86, 94, 95, 106, 105, 215, 216, 227, 226
87, 95, 96, 107, 106, 216, 217, 228, 227
88, 96, 97, 108, 107, 217, 218, 229, 228
89, 97, 98, 109, 108, 218, 219, 230, 229
90, 98, 99, 110, 109, 219, 220, 231, 230
91, 100, 101, 112, 111, 221, 222, 233, 232
92, 101, 102, 113, 112, 222, 223, 234, 233
93, 102, 103, 114, 113, 223, 224, 235, 234
94, 103, 104, 115, 114, 224, 225, 236, 235
95, 104, 105, 116, 115, 225, 226, 237, 236
96, 105, 106, 117, 116, 226, 227, 238, 237
97, 106, 107, 118, 117, 227, 228, 239, 238
98, 107, 108, 119, 118, 228, 229, 240, 239
99, 108, 109, 120, 119, 229, 230, 241, 240
100, 109, 110, 121, 120, 230, 231, 242, 241
101, 122, 123, 134, 133, 243, 244, 255, 254
102, 123, 124, 135, 134, 244, 245, 256, 255
103, 124, 125, 136, 135, 245, 246, 257, 256
104, 125, 126, 137, 136, 246, 247, 258, 257
105, 126, 127, 138, 137, 247, 248, 259, 258
106, 127, 128, 139, 138, 248, 249, 260, 259
107, 128, 129, 140, 139, 249, 250, 261, 260
108, 129, 130, 141, 140, 250, 251, 262, 261
109, 130, 131, 142, 141, 251, 252, 263, 262
110, 131, 132, 143, 142, 252, 253, 264, 263
111, 133, 134, 145, 144, 254, 255, 266, 265
112, 134, 135, 146, 145, 255, 256, 267, 266
113, 135, 136, 147, 146, 256, 257, 268, 267
114, 136, 137, 148, 147, 257, 258, 269, 268
115, 137, 138, 149, 148, 258, 259, 270, 269
116, 138, 139, 150, 149, 259, 260, 271, 270
117, 139, 140, 151, 150, 260, 261, 272, 271
118, 140, 141, 152, 151, 261, 262, 273, 272
119, 141, 142, 153, 152, 262, 263, 274, 273
120, 142, 143, 154, 153, 263, 264, 275, 274
121, 144, 145, 156, 155, 265, 266, 277, 276
122, 145, 146, 157, 156, 266, 267, 278, 277
123, 146, 147, 158, 157, 267, 268, 279, 278
124, 147, 148, 159, 158, 268, 269, 280, 279
125, 148, 149, 160, 159, 269, 270, 281, 280
126, 149, 150, 161, 160, 270, 271, 282, 281
127, 150, 151, 162, 161, 271, 272, 283, 282
128, 151, 152, 163, 162, 272, 273, 284, 283
129, 152, 153, 164, 163, 273, 274, 285, 284
130, 153, 154, 165, 164, 274, 275, 286, 285
131, 155, 156, 167, 166, 276, 277, 288, 287
132, 156, 157, 168, 167, 277, 278, 289, 288
133, 157, 158, 169, 168, 278, 279, 290, 289
134, 158, 159, 170, 169, 279, 280, 291, 290
135, 159, 160, 171, 170, 280, 281, 292, 291
136, 160, 161, 172, 171, 281, 282, 293, 292
137, 161, 162, 173, 172, 282, 283, 294, 293
138, 162, 163, 174, 173, 283, 284, 295, 294
139, 163, 164, 175, 174, 284, 285, 296, 295
140, 164, 165, 176, 175, 285, 286, 297, 296
141, 166, 167, 178, 177, 287, 288, 299, 298
142, 167, 168, 179, 178, 288, 289, 300, 299
143, 168, 169, 180, 179, 289, 290, 301, 300
144, 169, 170, 181, 180, 290, 291, 302, 301
145, 170, 171, 182, 181, 291, 292, 303, 302
146, 171, 172, 183, 182, 292, 293, 304, 303
147, 172, 173, 184, 183, 293, 294, 305, 304
148, 173, 174, 185, 184, 294, 295, 306, 305
149, 174, 175, 186, 185, 295, 296, 307, 306
150, 175, 176, 187, 186, 296, 297, 308, 307
151, 177, 178, 189, 188, 298, 299, 310, 309
152, 178, 179, 190, 189, 299, 300, 311, 310
153, 179, 180, 191, 190, 300, 301, 312, 311
154, 180, 181, 192, 191, 301, 302, 313, 312
155, 181, 182, 193, 192, 302, 303, 314, 313
156, 182, 183, 194, 193, 303, 304, 315, 314
157, 183, 184, 195, 194, 304, 305, 316, 315
158, 184, 185, 196, 195, 305, 306, 317, 316
159, 185, 186, 197, 196, 306, 307, 318, 317
160, 186, 187, 198, 197, 307, 308, 319, 318
161, 188, 189, 200, 199, 309, 310, 321, 320
162, 189, 190, 201, 200, 310, 311, 322, 321
163, 190, 191, 202, 201, 311, 312, 323, 322
164, 191, 192, 203, 202, 312, 313, 324, 323
165, 192, 193, 204, 203, 313, 314, 325, 324
166, 193, 194, 205, 204, 314, 315, 326, 325
167, 194, 195, 206, 205, 315, 316, 327, 326
168, 195, 196, 207, 206, 316, 317, 328, 327
169, 196, 197, 208, 207, 317, 318, 329, 328
170, 197, 198, 209, 208, 318, 319, 330, 329
171, 199, 200, 211, 210, 320, 321, 332, 331
172, 200, 201, 212, 211, 321, 322, 333, 332
173, 201, 202, 213, 212, 322, 323, 334, 333
174, 202, 203, 214, 213, 323, 324, 335, 334
175, 203, 204, 215, 214, 324, 325, 336, 335
176, 204, 205, 216, 215, 325, 326, 337, 336
177, 205, 206, 217, 216, 326, 327, 338, 337
178, 206, 207, 218, 217, 327, 328, 339, 338
179, 207, 208, 219, 218, 328, 329, 340, 339
180, 208, 209, 220, 219, 329, 330, 341, 340
181, 210, 211, 222, 221, 331, 332, 343, 342
182, 211, 212, 223, 222, 332, 333, 344, 343
183, 212, 213, 224, 223, 333, 334, 345, 344
184, 213, 214, 225, 224, 334, 335, 346, 345
185, 214, 215, 226, 225, 335, 336, 347, 346
186, 215, 216, 227, 226, 336, 337, 348, 347
187, 216, 217, 228, 227, 337, 338, 349, 348
188, 217, 218, 229, 228, 338, 339, 350, 349
189, 218, 219, 230, 229, 339, 340, 351, 350
190, 219, 220, 231, 230, 340, 341, 352, 351
191, 221, 222, 233, 232, 342, 343, 354, 353
192, 222, 223, 234, 233, 343, 344, 355, 354
193, 223, 224, 235, 234, 344, 345, 356, 355
194, 224, 225, 236, 235, 345, 346, 357, 356
195, 225, 226, 237, 236, 346, 347, 358, 357
196, 226, 227, 238, 237, 347, 348, 359, 358
197, 227, 228, 239, 238, 348, 349, 360, 359
198, 228, 229, 240, 239, 349, 350, 361, 360
199, 229, 230, 241, 240, 350, 351, 362, 361
200, 230, 231, 242, 241, 351, 352, 363, 362
201, 243, 244, 255, 254, 364, 365, 376, 375
202, 244, 245, 256, 255, 365, 366, 377, 376
203, 245, 246, 257, 256, 366, 367, 378, 377
204, 246, 247, 258, 257, 367, 368, 379, 378
205, 247, 248, 259, 258, 368, 369, 380, 379
206, 248, 249, 260, 259, 369, 370, 381, 380
207, 249, 250, 261, 260, 370, 371, 382, 381
208, 250, 251, 262, 261, 371, 372, 383, 382
209, 251, 252, 263, 262, 372, 373, 384, 383
210, 252, 253, 264, 263, 373, 374, 385, 384
211, 254, 255, 266, 265, 375, 376, 387, 386
212, 255, 256, 267, 266, 376, 377, 388, 387
213, 256, 257, 268, 267, 377, 378, 389, 388
214, 257, 258, 269, 268, 378, 379, 390, 389
215, 258, 259, 270, 269, 379, 380, 391, 390
216, 259, 260, 271, 270, 380, 381, 392, 391
217, 260, 261, 272, 271, 381, 382, 393, 392
218, 261, 262, 273, 272, 382, 383, 394, 393
219, 262, 263, 274, 273, 383, 384, 395, 394
220, 263, 264, 275, 274, 384, 385, 396, 395
221, 265, 266, 277, 276, 386, 387, 398, 397
222, 266, 267, 278, 277, 387, 388, 399, 398
223, 267, 268, 279, 278, 388, 389, 400, 399
224, 268, 269, 280, 279, 389, 390, 401, 400
225, 269, 270, 281, 280, 390, 391, 402, 401
226, 270, 271, 282, 281, 391, 392, 403, 402
227, 271, 272, 283, 282, 392, 393, 404, 403
228, 272, 273, 284, 283, 393, 394, 405, 404
229, 273, 274, 285, 284, 394, 395, 406, 405
230, 274, 275, 286, 285, 395, 396, 407, 406
231, 276, 277, 288, 287, 397, 398, 409, 408
232, 277, 278, 289, 288, 398, 399, 410, 409
233, 278, 279, 290, 289, 399, 400, 411, 410
234, 279, 280, 291, 290, 400, 401, 412, 411
235, 280, 281, 292, 291, 401, 402, 413, 412
236, 281, 282, 293, 292, 402, 403, 414, 413
237, 282, 283, 294, 293, 403, 404, 415, 414
238, 283, 284, 295, 294, 404, 405, 416, 415
239, 284, 285, 296, 295, 405, 406, 417, 416
240, 285, 286, 297, 296, 406, 407, 418, 417
241, 287, 288, 299, 298, 408, 409, 420, 419
242, 288, 289, 300, 299, 409, 410, 421, 420
243, 289, 290, 301, 300, 410, 411, 422, 421
244, 290, 291, 302, 301, 411, 412, 423, 422
245, 291, 292, 303, 302, 412, 413, 424, 423
246, 292, 293, 304, 303, 413, 414, 425, 424
247, 293, 294, 305, 304, 414, 415, 426, 425
248, 294, 295, 306, 305, 415, 416, 427, 426
249, 295, 296, 307, 306, 416, 417, 428, 427
250, 296, 297, 308, 307, 417, 418, 429, 428
251, 298, 299, 310, 309, 419, 420, 431, 430
252, 299, 300, 311, 310, 420, 421, 432, 431
253, 300, 301, 312, 311, 421, 422, 433, 432
254, 301, 302, 313, 312, 422, 423, 434, 433
255, 302, 303, 314, 313, 423, 424, 435, 434
256, 303, 304, 315, 314, 424, 425, 436, 435
257, 304, 305, 316, 315, 425, 426, 437, 436
258, 305, 306, 317, 316, 426, 427, 438, 437
259, 306, 307, 318, 317, 427, 428, 439, 438
260, 307, 308, 319, 318, 428, 429, 440, 439
261, 309, 310, 321, 320, 430, 431, 442, 441
262, 310, 311, 322, 321, 431, 432, 443, 442
263, 311, 312, 323, 322, 432, 433, 444, 443
264, 312, 313, 324, 323, 433, 434, 445, 444
265, 313, 314, 325, 324, 434, 435, 446, 445
266, 314, 315, 326, 325, 435, 436, 447, 446
267, 315, 316, 327, 326, 436, 437, 448, 447
268, 316, 317, 328, 327, 437, 438, 449, 448
269, 317, 318, 329, 328, 438, 439, 450, 449
270, 318, 319, 330, 329, 439, 440, 451, 450
271, 320, 321, 332, 331, 441, 442, 453, 452
272, 321, 322, 333, 332, 442, 443, 454, 453
273, 322, 323, 334, 333, 443, 444, 455, 454
274, 323, 324, 335, 334, 444, 445, 456, 455
275, 324, 325, 336, 335, 445, 446, 457, 456
276, 325, 326, 337, 336, 446, 447, 458, 457
277, 326, 327, 338, 337, 447, 448, 459, 458
278, 327, 328, 339, 338, 448, 449, 460, 459
279, 328, 329, 340, 339, 449, 450, 461, 460
280, 329, 330, 341, 340, 450, 451, 462, 461
281, 331, 332, 343, 342, 452, 453, 464, 463
282, 332, 333, 344, 343, 453, 454, 465, 464
283, 333, 334, 345, 344, 454, 455, 466, 465
284, 334, 335, 346, 345, 455, 456, 467, 466
285, 335, 336, 347, 346, 456, 457, 468, 467
286, 336, 337, 348, 347, 457, 458, 469, 468
287, 337, 338, 349, 348, 458, 459, 470, 469
288, 338, 339, 350, 349, 459, 460, 471, 470
289, 339, 340, 351, 350, 460, 461, 472, 471
290, 340, 341, 352, 351, 461, 462, 473, 472
291, 342, 343, 354, 353, 463, 464, 475, 474
292, 343, 344, 355, 354, 464, 465, 476, 475
293, 344, 345, 356, 355, 465, 466, 477, 476
294, 345, 346, 357, 356, 466, 467, 478, 477
295, 346, 347, 358, 357, 467, 468, 479, 478
296, 347, 348, 359, 358, 468, 469, 480, 479
297, 348, 349, 360, 359, 469, 470, 481, 480
298, 349, 350, 361, 360, 470, 471, 482, 481
299, 350, 351, 362, 361, 471, 472, 483, 482
300, 351, 352, 363, 362, 472, 473, 484, 483
301, 364, 365, 376, 375, 485, 486, 497, 496
302, 365, 366, 377, 376, 486, 487, 498, 497
303, 366, 367, 378, 377, 487, 488, 499, 498
304, 367, 368, 379, 378, 488, 489, 500, 499
305, 368, 369, 380, 379, 489, 490, 501, 500
306, 369, 370, 381, 380, 490, 491, 502, 501
307, 370, 371, 382, 381, 491, 492, 503, 502
308, 371, 372, 383, 382, 492, 493, 504, 503
309, 372, 373, 384, 383, 493, 494, 505, 504
310, 373, 374, 385, 384, 494, 495, 506, 505
311, 375, 376, 387, 386, 496, 497, 508, 507
312, 376, 377, 388, 387, 497, 498, 509, 508
313, 377, 378, 389, 388, 498, 499, 510, 509
314, 378, 379, 390, 389, 499, 500, 511, 510
315, 379, 380, 391, 390, 500, 501, 512, 511
316, 380, 381, 392, 391, 501, 502, 513, 512
317, 381, 382, 393, 392, 502, 503, 514, 513
318, 382, 383, 394, 393, 503, 504, 515, 514
319, 383, 384, 395, 394, 504, 505, 516, 515
320, 384, 385, 396, 395, 505, 506, 517, 516
321, 386, 387, 398, 397, 507, 508, 519, 518
322, 387, 388, 399, 398, 508, 509, 520, 519
323, 388, 389, 400, 399, 509, 510, 521, 520
324, 389, 390, 401, 400, 510, 511, 522, 521
325, 390, 391, 402, 401, 511, 512, 523, 522
326, 391, 392, 403, 402, 512, 513, 524, 523
327, 392, 393, 404, 403, 513, 514, 525, 524
328, 393, 394, 405, 404, 514, 515, 526, 525
329, 394, 395, 406, 405, 515, 516, 527, 526
330, 395, 396, 407, 406, 516, 517, 528, 527
331, 397, 398, 409, 408, 518, 519, 530, 529
332, 398, 399, 410, 409, 519, 520, 531, 530
333, 399, 400, 411, 410, 520, 521, 532, 531
334, 400, 401, 412, 411, 521, 522, 533, 532
335, 401, 402, 413, 412, 522, 523, 534, 533
336, 402, 403, 414, 413, 523, 524, 535, 534
337, 403, 404, 415, 414, 524, 525, 536, 535
338, 404, 405, 416, 415, 525, 526, 537, 536
339, 405, 406, 417, 416, 526, 527, 538, 537
340, 406, 407, 418, 417, 527, 528, 539, 538
341, 408, 409, 420, 419, 529, 530, 541, 540
342, 409, 410, 421, 420, 530, 531, 542, 541
343, 410, 411, 422, 421, 531, 532, 543, 542
344, 411, 412, 423, 422, 532, 533, 544, 543
345, 412, 413, 424, 423, 533, 534, 545, 544
346, 413, 414, 425, 424, 534, 535, 546, 545
347, 414, 415, 426, 425, 535, 536, 547, 546
348, 415, 416, 427, 426, 536, 537, 548, 547
349, 416, 417, 428, 427, 537, 538, 549, 548
350, 417, 418, 429, 428, 538, 539, 550, 549
351, 419, 420, 431, 430, 540, 541, 552, 551
352, 420, 421, 432, 431, 541, 542, 553, 552
353, 421, 422, 433, 432, 542, 543, 554, 553
354, 422, 423, 434, 433, 543, 544, 555, 554
355, 423, 424, 435, 434, 544, 545, 556, 555
356, 424, 425, 436, 435, 545, 546, 557, 556
357, 425, 426, 437, 436, 546, 547, 558, 557
358, 426, 427, 438, 437, 547, 548, 559, 558
359, 427, 428, 439, 438, 548, 549, 560, 559
360, 428, 429, 440, 439, 549, 550, 561, 560
361, 430, 431, 442, 441, 551, 552, 563, 562
362, 431, 432, 443, 442, 552, 553, 564, 563
363, 432, 433, 444, 443, 553, 554, 565, 564
364, 433, 434, 445, 444, 554, 555, 566, 565
365, 434, 435, 446, 445, 555, 556, 567, 566
366, 435, 436, 447, 446, 556, 557, 568, 567
367, 436, 437, 448, 447, 557, 558, 569, 568
368, 437, 438, 449, 448, 558, 559, 570, 569
369, 438, 439, 450, 449, 559, 560, 571, 570
370, 439, 440, 451, 450, 560, 561, 572, 571
371, 441, 442, 453, 452, 562, 563, 574, 573
372, 442, 443, 454, 453, 563, 564, 575, 574
373, 443, 444, 455, 454, 564, 565, 576, 575
374, 444, 445, 456, 455, 565, 566, 577, 576
375, 445, 446, 457, 456, 566, 567, 578, 577
376, 446, 447, 458, 457, 567, 568, 579, 578
377, 447, 448, 459, 458, 568, 569, 580, 579
378, 448, 449, 460, 459, 569, 570, 581, 580
379, 449, 450, 461, 460, 570, 571, 582, 581
380, 450, 451, 462, 461, 571, 572, 583, 582
381, 452, 453, 464, 463, 573, 574, 585, 584
382, 453, 454, 465, 464, 574, 575, 586, 585
383, 454, 455, 466, 465, 575, 576, 587, 586
384, 455, 456, 467, 466, 576, 577, 588, 587
385, 456, 457, 468, 467, 577, 578, 589, 588
386, 457, 458, 469, 468, 578, 579, 590, 589
387, 458, 459, 470, 469, 579, 580, 591, 590
388, 459, 460, 471, 470, 580, 581, 592, 591
389, 460, 461, 472, 471, 581, 582, 593, 592
390, 461, 462, 473, 472, 582, 583, 594, 593
391, 463, 464, 475, 474, 584, 585, 596, 595
392, 464, 465, 476, 475, 585, 586, 597, 596
393, 465, 466, 477, 476, 586, 587, 598, 597
394, 466, 467, 478, 477, 587, 588, 599, 598
395, 467, 468, 479, 478, 588, 589, 600, 599
396, 468, 469, 480, 479, 589, 590, 601, 600
397, 469, 470, 481, 480, 590, 591, 602, 601
398, 470, 471, 482, 481, 591, 592, 603, 602
399, 471, 472, 483, 482, 592, 593, 604, 603
400, 472, 473, 484, 483, 593, 594, 605, 604
*End Part
*Assembly, name=Assembly
*Instance, name=PLATE-1, part=PLATE
*End Instance
*End Assembly
** embmesh generated fibers
*Node, nset=EMBMESH_NODES
100000, 0, 9.875, 1.875
100001, 10, 9.875, 1.875
100002, 0, 9.625, 1.875
100003, 10, 9.625, 1.875
100004, 0, 9.375, 1.875
100005, 10, 9.375, 1.875
100006, 0, 9.125, 1.875
100007, 10, 9.125, 1.875
100008, 0, 8.875, 1.875
100009, 10, 8.875, 1.875
100010, 0, 8.625, 1.875
100011, 10, 8.625, 1.875
100012, 0, 8.375, 1.875
100013, 10, 8.375, 1.875
100014, 0, 8.125, 1.875
100015, 10, 8.125, 1.875
100016, 0, 7.875, 1.875
100017, 10, 7.875, 1.875
100018, 0, 7.625, 1.875
100019, 10, 7.625, 1.875
100020, 0, 7.375, 1.875
100021, 10, 7.375, 1.875
100022, 0, 7.125, 1.875
100023, 10, 7.125, 1.875
100024, 0, 6.875, 1.875
100025, 10, 6.875, 1.875
100026, 0, 6.625, 1.875
100027, 10, 6.625, 1.875
100028, 0, 6.375, 1.875
100029, 10, 6.375, 1.875
100030, 0, 6.125, 1.875
100031, 10, 6.125, 1.875
100032, 0, 5.875, 1.875
100033, 10, 5.875, 1.875
100034, 0, 5.625, 1.875
100035, 10, 5.625, 1.875
100036, 0, 5.375, 1.875
100037, 10, 5.375, 1.875
100038, 0, 5.125, 1.875
100039, 10, 5.125, 1.875
100040, 0, 4.875, 1.875
100041, 10, 4.875, 1.875
100042, 0, 4.625, 1.875
100043, 10, 4.625, 1.875
100044, 0, 4.375, 1.875
100045, 10, 4.375, 1.875
100046, 0, 4.125, 1.875
100047, 10, 4.125, 1.875
100048, 0, 3.875, 1.875
100049, 10, 3.875, 1.875
100050, 0, 3.625, 1.875
100051, 10, 3.625, 1.875
100052, 0, 3.375, 1.875
100053, 10, 3.375, 1.875
100054, 0, 3.125, 1.875
100055, 10, 3.125, 1.875
100056, 0, 2.875, 1.875
100057, 10, 2.875, 1.875
100058, 0, 2.625, 1.875
100059, 10, 2.625, 1.875
100060, 0, 2.375, 1.875
100061, 10, 2.375, 1.875
100062, 0, 2.125, 1.875
100063, 10, 2.125, 1.875
100064, 0, 1.875, 1.875
100065, 10, 1.875, 1.875
100066, 0, 1.625, 1.875
100067, 10, 1.625, 1.875
100068, 0, 1.375, 1.875
100069, 10, 1.375, 1.875
100070, 0, 1.125, 1.875
100071, 10, 1.125, 1.875
100072, 0, 0.875, 1.875
100073, 10, 0.875, 1.875
100074, 0, 0.625, 1.875
100075, 10, 0.625, 1.875
100076, 0, 0.375, 1.875
100077, 10, 0.375, 1.875
100078, 0, 0.125, 1.875
100079, 10, 0.125, 1.875
100080, 0.125, 10, 1.625
100081, 0.125, 0, 1.625
100082, 0.375, 10, 1.625
100083, 0.375, 0, 1.625
100084, 0.625, 10, 1.625
100085, 0.625, 0, 1.625
100086, 0.875, 10, 1.625
100087, 0.875, 0, 1.625
100088, 1.125, 10, 1.625
100089, 1.125, 0, 1.625
100090, 1.375, 10, 1.625
100091, 1.375, 0, 1.625
100092, 1.625, 10, 1.625
100093, 1.625, 0, 1.625
100094, 1.875, 10, 1.625
100095, 1.875, 0, 1.625
100096, 2.125, 10, 1.625
100097, 2.125, 0, 1.625
100098, 2.375, 10, 1.625
100099, 2.375, 0, 1.625
100100, 2.625, 10, 1.625
100101, 2.625, 0, 1.625
100102, 2.875, 10, 1.625
100103, 2.875, 0, 1.625
100104, 3.125, 10, 1.625
100105, 3.125, 0, 1.625
100106, 3.375, 10, 1.625
100107, 3.375, 0, 1.625
100108, 3.625, 10, 1.625
100109, 3.625, 0, 1.625
100110, 3.875, 10, 1.625
100111, 3.875, 0, 1.625
100112, 4.125, 10, 1.625
100113, 4.125, 0, 1.625
100114, 4.375, 10, 1.625
100115, 4.375, 0, 1.625
100116, 4.625, 10, 1.625
100117, 4.625, 0, 1.625
100118, 4.875, 10, 1.625
100119, 4.875, 0, 1.625
100120, 5.125, 10, 1.625
100121, 5.125, 0, 1.625
100122, 5.375, 10, 1.625
100123, 5.375, 0, 1.625
100124, 5.625, 10, 1.625
100125, 5.625, 0, 1.625
100126, 5.875, 10, 1.625
100127, 5.875, 0, 1.625
100128, 6.125, 10, 1.625
100129, 6.125, 0, 1.625
100130, 6.375, 10, 1.625
100131, 6.375, 0, 1.625
100132, 6.625, 10, 1.625
100133, 6.625, 0, 1.625
100134, 6.875, 10, 1.625
100135, 6.875, 0, 1.625
100136, 7.125, 10, 1.625
100137, 7.125, 0, 1.625
100138, 7.375, 10, 1.625
100139, 7.375, 0, 1.625
100140, 7.625, 10, 1.625
100141, 7.625, 0, 1.625
100142, 7.875, 10, 1.625
100143, 7.875, 0, 1.625
100144, 8.125, 10, 1.625
100145, 8.125, 0, 1.625
100146, 8.375, 10, 1.625
100147, 8.375, 0, 1.625
100148, 8.625, 10, 1.625
100149, 8.625, 0, 1.625
100150, 8.875, 10, 1.625
100151, 8.875, 0, 1.625
100152, 9.125, 10, 1.625
100153, 9.125, 0, 1.625
100154, 9.375, 10, 1.625
100155, 9.375, 0, 1.625
100156, 9.625, 10, 1.625
100157, 9.625, 0, 1.625
100158, 9.875, 10, 1.625
100159, 9.875, 0, 1.625
100160, 0, 9.875, 1.375
100161, 10, 9.875, 1.375
100162, 0, 9.625, 1.375
100163, 10, 9.625, 1.375
100164, 0, 9.375, 1.375
100165, 10, 9.375, 1.375
100166, 0, 9.125, 1.375
100167, 10, 9.125, 1.375
100168, 0, 8.875, 1.375
100169, 10, 8.875, 1.375
100170, 0, 8.625, 1.375
100171, 10, 8.625, 1.375
100172, 0, 8.375, 1.375
100173, 10, 8.375, 1.375
100174, 0, 8.125, 1.375
100175, 10, 8.125, 1.375
100176, 0, 7.875, 1.375
100177, 10, 7.875, 1.375
100178, 0, 7.625, 1.375
100179, 10, 7.625, 1.375
100180, 0, 7.375, 1.375
100181, 10, 7.375, 1.375
100182, 0, 7.125, 1.375
100183, 10, 7.125, 1.375
100184, 0, 6.875, 1.375
100185, 10, 6.875, 1.375
100186, 0, 6.625, 1.375
100187, 10, 6.625, 1.375
100188, 0, 6.375, 1.375
100189, 10, 6.375, 1.375
100190, 0, 6.125, 1.375
100191, 10, 6.125, 1.375
100192, 0, 5.875, 1.375
100193, 10, 5.875, 1.375
100194, 0, 5.625, 1.375
100195, 10, 5.625, 1.375
100196, 0, 5.375, 1.375
100197, 10, 5.375, 1.375
100198, 0, 5.125, 1.375
100199, 10, 5.125, 1.375
100200, 0, 4.875, 1.375
100201, 10, 4.875, 1.375
100202, 0, 4.625, 1.375
100203, 10, 4.625, 1.375
100204, 0, 4.375, 1.375
100205, 10, 4.375, 1.375
100206, 0, 4.125, 1.375
100207, 10, 4.125, 1.375
100208, 0, 3.875, 1.375
100209, 10, 3.875, 1.375
100210, 0, 3.625, 1.375
100211, 10, 3.625, 1.375
100212, 0, 3.375, 1.375
100213, 10, 3.375, 1.375
100214, 0, 3.125, 1.375
100215, 10, 3.125, 1.375
100216, 0, 2.875, 1.375
100217, 10, 2.875, 1.375
100218, 0, 2.625, 1.375
100219, 10, 2.625, 1.375
100220, 0, 2.375, 1.375
100221, 10, 2.375, 1.375
100222, 0, 2.125, 1.375
100223, 10, 2.125, 1.375
100224, 0, 1.875, 1.375
100225, 10, 1.875, 1.375
100226, 0, 1.625, 1.375
100227, 10, 1.625, 1.375
100228, 0, 1.375, 1.375
100229, 10, 1.375, 1.375
100230, 0, 1.125, 1.375
100231, 10, 1.125, 1.375
100232, 0, 0.875, 1.375
100233, 10, 0.875, 1.375
100234, 0, 0.625, 1.375
100235, 10, 0.625, 1.375
100236, 0, 0.375, 1.375
100237, 10, 0.375, 1.375
100238, 0, 0.125, 1.375
100239, 10, 0.125, 1.375
100240, 0.125, 10, 1.125
100241, 0.125, 0, 1.125
100242, 0.375, 10, 1.125
100243, 0.375, 0, 1.125
100244, 0.625, 10, 1.125
100245, 0.625, 0, 1.125
100246, 0.875, 10, 1.125
100247, 0.875, 0, 1.125
100248, 1.125, 10, 1.125
100249, 1.125, 0, 1.125
100250, 1.375, 10, 1.125
100251, 1.375, 0, 1.125
100252, 1.625, 10, 1.125
100253, 1.625, 0, 1.125
100254, 1.875, 10, 1.125
100255, 1.875, 0, 1.125
100256, 2.125, 10, 1.125
100257, 2.125, 0, 1.125
100258, 2.375, 10, 1.125
100259, 2.375, 0, 1.125
100260, 2.625, 10, 1.125
100261, 2.625, 0, 1.125
100262, 2.875, 10, 1.125
100263, 2.875, 0, 1.125
100264, 3.125, 10, 1.125
100265, 3.125, 0, 1.125
100266, 3.375, 10, 1.125
100267, 3.375, 0, 1.125
100268, 3.625, 10, 1.125
100269, 3.625, 0, 1.125
100270, 3.875, 10, 1.125
100271, 3.875, 0, 1.125
100272, 4.125, 10, 1.125
100273, 4.125, 0, 1.125
100274, 4.375, 10, 1.125
100275, 4.375, 0, 1.125
100276, 4.625, 10, 1.125
100277, 4.625, 0, 1.125
100278, 4.875, 10, 1.125
100279, 4.875, 0, 1.125
100280, 5.125, 10, 1.125
100281, 5.125, 0, 1.125
100282, 5.375, 10, 1.125
100283, 5.375, 0, 1.125
100284, 5.625, 10, 1.125
100285, 5.625, 0, 1.125
100286, 5.875, 10, 1.125
100287, 5.875, 0, 1.125
100288, 6.125, 10, 1.125
100289, 6.125, 0, 1.125
100290, 6.375, 10, 1.125
100291, 6.375, 0, 1.125
100292, 6.625, 10, 1.125
100293, 6.625, 0, 1.125
100294, 6.875, 10, 1.125
100295, 6.875, 0, 1.125
100296, 7.125, 10, 1.125
100297, 7.125, 0, 1.125
100298, 7.375, 10, 1.125
100299, 7.375, 0, 1.125
100300, 7.625, 10, 1.125
100301, 7.625, 0, 1.125
100302, 7.875, 10, 1.125
100303, 7.875, 0, 1.125
100304, 8.125, 10, 1.125
100305, 8.125, 0, 1.125
100306, 8.375, 10, 1.125
100307, 8.375, 0, 1.125
100308, 8.625, 10, 1.125
100309, 8.625, 0, 1.125
100310, 8.875, 10, 1.125
100311, 8.875, 0, 1.125
100312, 9.125, 10, 1.125
100313, 9.125, 0, 1.125
100314, 9.375, 10, 1.125
100315, 9.375, 0, 1.125
100316, 9.625, 10, 1.125
100317, 9.625, 0, 1.125
100318, 9.875, 10, 1.125
100319, 9.875, 0, 1.125
100320, 0, 9.875, 0.875
100321, 10, 9.875, 0.875
100322, 0, 9.625, 0.875
100323, 10, 9.625, 0.875
100324, 0, 9.375, 0.875
100325, 10, 9.375, 0.875
100326, 0, 9.125, 0.875
100327, 10, 9.125, 0.875
100328, 0, 8.875, 0.875
100329, 10, 8.875, 0.875
100330, 0, 8.625, 0.875
100331, 10, 8.625, 0.875
100332, 0, 8.375, 0.875
100333, 10, 8.375, 0.875
100334, 0, 8.125, 0.875
100335, 10, 8.125, 0.875
100336, 0, 7.875, 0.875
100337, 10, 7.875, 0.875
100338, 0, 7.625, 0.875
100339, 10, 7.625, 0.875
100340, 0, 7.375, 0.875
100341, 10, 7.375, 0.875
100342, 0, 7.125, 0.875
100343, 10, 7.125, 0.875
100344, 0, 6.875, 0.875
100345, 10, 6.875, 0.875
100346, 0, 6.625, 0.875
100347, 10, 6.625, 0.875
100348, 0, 6.375, 0.875
100349, 10, 6.375, 0.875
100350, 0, 6.125, 0.875
100351, 10, 6.125, 0.875
100352, 0, 5.875, 0.875
100353, 10, 5.875, 0.875
100354, 0, 5.625, 0.875
100355, 10, 5.625, 0.875
100356, 0, 5.375, 0.875
100357, 10, 5.375, 0.875
100358, 0, 5.125, 0.875
100359, 10, 5.125, 0.875
100360, 0, 4.875, 0.875
100361, 10, 4.875, 0.875
100362, 0, 4.625, 0.875
100363, 10, 4.625, 0.875
100364, 0, 4.375, 0.875
100365, 10, 4.375, 0.875
100366, 0, 4.125, 0.875
100367, 10, 4.125, 0.875
100368, 0, 3.875, 0.875
100369, 10, 3.875, 0.875
100370, 0, 3.625, 0.875
100371, 10, 3.625, 0.875
100372, 0, 3.375, 0.875
100373, 10, 3.375, 0.875
100374, 0, 3.125, 0.875
100375, 10, 3.125, 0.875
100376, 0, 2.875, 0.875
100377, 10, 2.875, 0.875
100378, 0, 2.625, 0.875
100379, 10, 2.625, 0.875
100380, 0, 2.375, 0.875
100381, 10, 2.375, 0.875
100382, 0, 2.125, 0.875
100383, 10, 2.125, 0.875
100384, 0, 1.875, 0.875
100385, 10, 1.875, 0.875
100386, 0, 1.625, 0.875
100387, 10, 1.625, 0.875
100388, 0, 1.375, 0.875
100389, 10, 1.375, 0.875
100390, 0, 1.125, 0.875
100391, 10, 1.125, 0.875
100392, 0, 0.875, 0.875
100393, 10, 0.875, 0.875
100394, 0, 0.625, 0.875
100395, 10, 0.625, 0.875
100396, 0, 0.375, 0.875
100397, 10, 0.375, 0.875
100398, 0, 0.125, 0.875
100399, 10, 0.125, 0.875
100400, 0.125, 10, 0.625
100401, 0.125, 0, 0.625
100402, 0.375, 10, 0.625
100403, 0.375, 0, 0.625
100404, 0.625, 10, 0.625
100405, 0.625, 0, 0.625
100406, 0.875, 10, 0.625
100407, 0.875, 0, 0.625
100408, 1.125, 10, 0.625
100409, 1.125, 0, 0.625
100410, 1.375, 10, 0.625
100411, 1.375, 0, 0.625
100412, 1.625, 10, 0.625
100413, 1.625, 0, 0.625
100414, 1.875, 10, 0.625
100415, 1.875, 0, 0.625
100416, 2.125, 10, 0.625
100417, 2.125, 0, 0.625
100418, 2.375, 10, 0.625
100419, 2.375, 0, 0.625
100420, 2.625, 10, 0.625
100421, 2.625, 0, 0.625
100422, 2.875, 10, 0.625
100423, 2.875, 0, 0.625
100424, 3.125, 10, 0.625
100425, 3.125, 0, 0.625
100426, 3.375, 10, 0.625
100427, 3.375, 0, 0.625
100428, 3.625, 10, 0.625
100429, 3.625, 0, 0.625
100430, 3.875, 10, 0.625
100431, 3.875, 0, 0.625
100432, 4.125, 10, 0.625
100433, 4.125, 0, 0.625
100434, 4.375, 10, 0.625
100435, 4.375, 0, 0.625
100436, 4.625, 10, 0.625
100437, 4.625, 0, 0.625
100438, 4.875, 10, 0.625
100439, 4.875, 0, 0.625
100440, 5.125, 10, 0.625
100441, 5.125, 0, 0.625
100442, 5.375, 10, 0.625
100443, 5.375, 0, 0.625
100444, 5.625, 10, 0.625
100445, 5.625, 0, 0.625
100446, 5.875, 10, 0.625
100447, 5.875, 0, 0.625
100448, 6.125, 10, 0.625
100449, 6.125, 0, 0.625
100450, 6.375, 10, 0.625
100451, 6.375, 0, 0.625
100452, 6.625, 10, 0.625
100453, 6.625, 0, 0.625
100454, 6.875, 10, 0.625
100455, 6.875, 0, 0.625
100456, 7.125, 10, 0.625
100457, 7.125, 0, 0.625
100458, 7.375, 10, 0.625
100459, 7.375, 0, 0.625
100460, 7.625, 10, 0.625
100461, 7.625, 0, 0.625
100462, 7.875, 10, 0.625
100463, 7.875, 0, 0.625
100464, 8.125, 10, 0.625
100465, 8.125, 0, 0.625
100466, 8.375, 10, 0.625
100467, 8.375, 0, 0.625
100468, 8.625, 10, 0.625
100469, 8.625, 0, 0.625
100470, 8.875, 10, 0.625
100471, 8.875, 0, 0.625
100472, 9.125, 10, 0.625
100473, 9.125, 0, 0.625
100474, 9.375, 10, 0.625
100475, 9.375, 0, 0.625
100476, 9.625, 10, 0.625
100477, 9.625, 0, 0.625
100478, 9.875, 10, 0.625
100479, 9.875, 0, 0.625
100480, 0, 9.875, 0.375
100481, 10, 9.875, 0.375
100482, 0, 9.625, 0.375
100483, 10, 9.625, 0.375
100484, 0, 9.375, 0.375
100485, 10, 9.375, 0.375
100486, 0, 9.125, 0.375
100487, 10, 9.125, 0.375
100488, 0, 8.875, 0.375
100489, 10, 8.875, 0.375
100490, 0, 8.625, 0.375
100491, 10, 8.625, 0.375
100492, 0, 8.375, 0.375
100493, 10, 8.375, 0.375
100494, 0, 8.125, 0.375
100495, 10, 8.125, 0.375
100496, 0, 7.875, 0.375
100497, 10, 7.875, 0.375
100498, 0, 7.625, 0.375
100499, 10, 7.625, 0.375
100500, 0, 7.375, 0.375
100501, 10, 7.375, 0.375
100502, 0, 7.125, 0.375
100503, 10, 7.125, 0.375
100504, 0, 6.875, 0.375
100505, 10, 6.875, 0.375
100506, 0, 6.625, 0.375
100507, 10, 6.625, 0.375
100508, 0, 6.375, 0.375
100509, 10, 6.375, 0.375
100510, 0, 6.125, 0.375
100511, 10, 6.125, 0.375
100512, 0, 5.875, 0.375
100513, 10, 5.875, 0.375
100514, 0, 5.625, 0.375
100515, 10, 5.625, 0.375
100516, 0, 5.375, 0.375
100517, 10, 5.375, 0.375
100518, 0, 5.125, 0.375
100519, 10, 5.125, 0.375
100520, 0, 4.875, 0.375
100521, 10, 4.875, 0.375
100522, 0, 4.625, 0.375
100523, 10, 4.625, 0.375
100524, 0, 4.375, 0.375
100525, 10, 4.375, 0.375
100526, 0, 4.125, 0.375
100527, 10, 4.125, 0.375
100528, 0, 3.875, 0.375
100529, 10, 3.875, 0.375
100530, 0, 3.625, 0.375
100531, 10, 3.625, 0.375
100532, 0, 3.375, 0.375
100533, 10, 3.375, 0.375
100534, 0, 3.125, 0.375
100535, 10, 3.125, 0.375
100536, 0, 2.875, 0.375
100537, 10, 2.875, 0.375
100538, 0, 2.625, 0.375
100539, 10, 2.625, 0.375
100540, 0, 2.375, 0.375
100541, 10, 2.375, 0.375
100542, 0, 2.125, 0.375
100543, 10, 2.125, 0.375
100544, 0, 1.875, 0.375
100545, 10, 1.875, 0.375
100546, 0, 1.625, 0.375
100547, 10, 1.625, 0.375
100548, 0, 1.375, 0.375
100549, 10, 1.375, 0.375
100550, 0, 1.125, 0.375
100551, 10, 1.125, 0.375
100552, 0, 0.875, 0.375
100553, 10, 0.875, 0.375
100554, 0, 0.625, 0.375
100555, 10, 0.625, 0.375
100556, 0, 0.375, 0.375
100557, 10, 0.375, 0.375
100558, 0, 0.125, 0.375
100559, 10, 0.125, 0.375
100560, 0.125, 10, 0.125
100561, 0.125, 0, 0.125
100562, 0.375, 10, 0.125
100563, 0.375, 0, 0.125
100564, 0.625, 10, 0.125
100565, 0.625, 0, 0.125
100566, 0.875, 10, 0.125
100567, 0.875, 0, 0.125
100568, 1.125, 10, 0.125
100569, 1.125, 0, 0.125
100570, 1.375, 10, 0.125
100571, 1.375, 0, 0.125
100572, 1.625, 10, 0.125
100573, 1.625, 0, 0.125
100574, 1.875, 10, 0.125
100575, 1.875, 0, 0.125
100576, 2.125, 10, 0.125
100577, 2.125, 0, 0.125
100578, 2.375, 10, 0.125
100579, 2.375, 0, 0.125
100580, 2.625, 10, 0.125
100581, 2.625, 0, 0.125
100582, 2.875, 10, 0.125
100583, 2.875, 0, 0.125
100584, 3.125, 10, 0.125
100585, 3.125, 0, 0.125
100586, 3.375, 10, 0.125
100587, 3.375, 0, 0.125
100588, 3.625, 10, 0.125
100589, 3.625, 0, 0.125
100590, 3.875, 10, 0.125
100591, 3.875, 0, 0.125
100592, 4.125, 10, 0.125
100593, 4.125, 0, 0.125
100594, 4.375, 10, 0.125
100595, 4.375, 0, 0.125
100596, 4.625, 10, 0.125
100597, 4.625, 0, 0.125
100598, 4.875, 10, 0.125
100599, 4.875, 0, 0.125
100600, 5.125, 10, 0.125
100601, 5.125, 0, 0.125
100602, 5.375, 10, 0.125
100603, 5.375, 0, 0.125
100604, 5.625, 10, 0.125
100605, 5.625, 0, 0.125
100606, 5.875, 10, 0.125
100607, 5.875, 0, 0.125
100608, 6.125, 10, 0.125
100609, 6.125, 0, 0.125
100610, 6.375, 10, 0.125
100611, 6.375, 0, 0.125
100612, 6.625, 10, 0.125
100613, 6.625, 0, 0.125
100614, 6.875, 10, 0.125
100615, 6.875, 0, 0.125
100616, 7.125, 10, 0.125
100617, 7.125, 0, 0.125
100618, 7.375, 10, 0.125
100619, 7.375, 0, 0.125
100620, 7.625, 10, 0.125
100621, 7.625, 0, 0.125
100622, 7.875, 10, 0.125
100623, 7.875, 0, 0.125
100624, 8.125, 10, 0.125
100625, 8.125, 0, 0.125
100626, 8.375, 10, 0.125
100627, 8.375, 0, 0.125
100628, 8.625, 10, 0.125
100629, 8.625, 0, 0.125
100630, 8.875, 10, 0.125
100631, 8.875, 0, 0.125
100632, 9.125, 10, 0.125
100633, 9.125, 0, 0.125
100634, 9.375, 10, 0.125
100635, 9.375, 0, 0.125
100636, 9.625, 10, 0.125
100637, 9.625, 0, 0.125
100638, 9.875, 10, 0.125
100639, 9.875, 0, 0.125
*Element, type=T3D2, elset=EMBMESH_FIBERS
100000, 100000,100001
100001, 100002,100003
100002, 100004,100005
100003, 100006,100007
100004, 100008,100009
100005, 100010,100011
100006, 100012,100013
100007, 100014,100015
100008, 100016,100017
100009, 100018,100019
100010, 100020,100021
100011, 100022,100023
100012, 100024,100025
100013, 100026,100027
100014, 100028,100029
100015, 100030,100031
100016, 100032,100033
100017, 100034,100035
100018, 100036,100037
100019, 100038,100039
100020, 100040,100041
100021, 100042,100043
100022, 100044,100045
100023, 100046,100047
100024, 100048,100049
100025, 100050,100051
100026, 100052,100053
100027, 100054,100055
100028, 100056,100057
100029, 100058,100059
100030, 100060,100061
100031, 100062,100063
100032, 100064,100065
100033, 100066,100067
100034, 100068,100069
100035, 100070,100071
100036, 100072,100073
100037, 100074,100075
100038, 100076,100077
100039, 100078,100079
100040, 100080,100081
100041, 100082,100083
100042, 100084,100085
100043, 100086,100087
100044, 100088,100089
100045, 100090,100091
100046, 100092,100093
100047, 100094,100095
100048, 100096,100097
100049, 100098,100099
100050, 100100,100101
100051, 100102,100103
100052, 100104,100105
100053, 100106,100107
100054, 100108,100109
100055, 100110,100111
100056, 100112,100113
100057, 100114,100115
100058, 100116,100117
100059, 100118,100119
100060, 100120,100121
100061, 100122,100123
100062, 100124,100125
100063, 100126,100127
100064, 100128,100129
100065, 100130,100131
100066, 100132,100133
100067, 100134,100135
100068, 100136,100137
100069, 100138,100139
100070, 100140,100141
100071, 100142,100143
100072, 100144,100145
100073, 100146,100147
100074, 100148,100149
100075, 100150,100151
100076, 100152,100153
100077, 100154,100155
100078, 100156,100157
100079, 100158,100159
100080, 100160,100161
100081, 100162,100163
100082, 100164,100165
100083, 100166,100167
100084, 100168,100169
100085, 100170,100171
100086, 100172,100173
100087, 100174,100175
100088, 100176,100177
100089, 100178,100179
100090, 100180,100181
100091, 100182,100183
100092, 100184,100185
100093, 100186,100187
100094, 100188,100189
100095, 100190,100191
100096, 100192,100193
100097, 100194,100195
100098, 100196,100197
100099, 100198,100199
100100, 100200,100201
100101, 100202,100203
100102, 100204,100205
100103, 100206,100207
100104, 100208,100209
100105, 100210,100211
100106, 100212,100213
100107, 100214,100215
100108, 100216,100217
100109, 100218,100219
100110, 100220,100221
100111, 100222,100223
100112, 100224,100225
100113, 100226,100227
100114, 100228,100229
100115, 100230,100231
100116, 100232,100233
100117, 100234,100235
100118, 100236,100237
100119, 100238,100239
100120, 100240,100241
100121, 100242,100243
100122, 100244,100245
100123, 100246,100247
100124, 100248,100249
100125, 100250,100251
100126, 100252,100253
100127, 100254,100255
100128, 100256,100257
100129, 100258,100259
100130, 100260,100261
100131, 100262,100263
100132, 100264,100265
100133, 100266,100267
100134, 100268,100269
100135, 100270,100271
100136, 100272,100273
100137, 100274,100275
100138, 100276,100277
100139, 100278,100279
100140, 100280,100281
100141, 100282,100283
100142, 100284,100285
100143, 100286,100287
100144, 100288,100289
100145, 100290,100291
100146, 100292,100293
100147, 100294,100295
100148, 100296,100297
100149, 100298,100299
100150, 100300,100301
100151, 100302,100303
100152, 100304,100305
100153, 100306,100307
100154, 100308,100309
100155, 100310,100311
100156, 100312,100313
100157, 100314,100315
100158, 100316,100317
100159, 100318,100319
100160, 100320,100321
100161, 100322,100323
100162, 100324,100325
100163, 100326,100327
100164, 100328,100329
100165, 100330,100331
100166, 100332,100333
100167, 100334,100335
100168, 100336,100337
100169, 100338,100339
100170, 100340,100341
100171, 100342,100343
100172, 100344,100345
100173, 100346,100347
100174, 100348,100349
100175, 100350,100351
100176, 100352,100353
100177, 100354,100355
100178, 100356,100357
100179, 100358,100359
100180, 100360,100361
100181, 100362,100363
100182, 100364,100365
100183, 100366,100367
100184, 100368,100369
100185, 100370,100371
100186, 100372,100373
100187, 100374,100375
100188, 100376,100377
100189, 100378,100379
100190, 100380,100381
100191, 100382,100383
100192, 100384,100385
100193, 100386,100387
100194, 100388,100389
100195, 100390,100391
100196, 100392,100393
100197, 100394,100395
100198, 100396,100397
100199, 100398,100399
100200, 100400,100401
100201, 100402,100403
100202, 100404,100405
100203, 100406,100407
100204, 100408,100409
100205, 100410,100411
100206, 100412,100413
100207, 100414,100415
100208, 100416,100417
100209, 100418,100419
100210, 100420,100421
100211, 100422,100423
100212, 100424,100425
100213, 100426,100427
100214, 100428,100429
100215, 100430,100431
100216, 100432,100433
100217, 100434,100435
100218, 100436,100437
100219, 100438,100439
100220, 100440,100441
100221, 100442,100443
100222, 100444,100445
100223, 100446,100447
100224, 100448,100449
100225, 100450,100451
100226, 100452,100453
100227, 100454,100455
100228, 100456,100457
100229, 100458,100459
100230, 100460,100461
100231, 100462,100463
100232, 100464,100465
100233, 100466,100467
100234, 100468,100469
100235, 100470,100471
100236, 100472,100473
100237, 100474,100475
100238, 100476,100477
100239, 100478,100479
100240, 100480,100481
100241, 100482,100483
100242, 100484,100485
100243, 100486,100487
100244, 100488,100489
100245, 100490,100491
100246, 100492,100493
100247, 100494,100495
100248, 100496,100497
100249, 100498,100499
100250, 100500,100501
100251, 100502,100503
100252, 100504,100505
100253, 100506,100507
100254, 100508,100509
100255, 100510,100511
100256, 100512,100513
100257, 100514,100515
100258, 100516,100517
100259, 100518,100519
100260, 100520,100521
100261, 100522,100523
100262, 100524,100525
100263, 100526,100527
100264, 100528,100529
100265, 100530,100531
100266, 100532,100533
100267, 100534,100535
100268, 100536,100537
100269, 100538,100539
100270, 100540,100541
100271, 100542,100543
100272, 100544,100545
100273, 100546,100547
100274, 100548,100549
100275, 100550,100551
100276, 100552,100553
100277, 100554,100555
100278, 100556,100557
100279, 100558,100559
100280, 100560,100561
100281, 100562,100563
100282, 100564,100565
100283, 100566,100567
100284, 100568,100569
100285, 100570,100571
100286, 100572,100573
100287, 100574,100575
100288, 100576,100577
100289, 100578,100579
100290, 100580,100581
100291, 100582,100583
100292, 100584,100585
100293, 100586,100587
100294, 100588,100589
100295, 100590,100591
100296, 100592,100593
100297, 100594,100595
100298, 100596,100597
100299, 100598,100599
100300, 100600,100601
100301, 100602,100603
100302, 100604,100605
100303, 100606,100607
100304, 100608,100609
100305, 100610,100611
100306, 100612,100613
100307, 100614,100615
100308, 100616,100617
100309, 100618,100619
100310, 100620,100621
100311, 100622,100623
100312, 100624,100625
100313, 100626,100627
100314, 100628,100629
100315, 100630,100631
100316, 100632,100633
100317, 100634,100635
100318, 100636,100637
100319, 100638,100639
*Solid Section, elset=EMBMESH_FIBERS, material=EMBMESH_FIBER
0.0490873852123405
*Material, name=EMBMESH_FIBER
*Elastic
1., 0.3
*Embedded Element, host elset=HOST
EMBMESH_FIBERS
