*Heading
** verification deck t11_plate.inp
*Part, name=PLATE
*Node
1, 0, 0, 0
2, 1, 0, 0
3, 2, 0, 0
4, 3, 0, 0
5, 4, 0, 0
6, 0, 1, 0
7, 1, 1, 0
8, 2, 1, 0
9, 3, 1, 0
10, 4, 1, 0
11, 0, 2, 0
12, 1, 2, 0
13, 2, 2, 0
14, 3, 2, 0
15, 4, 2, 0
16, 0, 3, 0
17, 1, 3, 0
18, 2, 3, 0
19, 3, 3, 0
20, 4, 3, 0
21, 0, 0, 1
22, 1, 0, 1
23, 2, 0, 1
24, 3, 0, 1
25, 4, 0, 1
26, 0, 1, 1
27, 1, 1, 1
28, 2, 1, 1
29, 3, 1, 1
30, 4, 1, 1
31, 0, 2, 1
32, 1, 2, 1
33, 2, 2, 1
34, 3, 2, 1
35, 4, 2, 1
36, 0, 3, 1
37, 1, 3, 1
38, 2, 3, 1
39, 3, 3, 1
40, 4, 3, 1
41, 0, 0, 2
42, 1, 0, 2
43, 2, 0, 2
44, 3, 0, 2
45, 4, 0, 2
46, 0, 1, 2
47, 1, 1, 2
48, 2, 1, 2
49, 3, 1, 2
50, 4, 1, 2
51, 0, 2, 2
52, 1, 2, 2
53, 2, 2, 2
54, 3, 2, 2
55, 4, 2, 2
56, 0, 3, 2
57, 1, 3, 2
58, 2, 3, 2
59, 3, 3, 2
60, 4, 3, 2
*Element, type=C3D8R, elset=HOST
1, 1, 2, 7, 6, 21, 22, 27, 26
2, 2, 3, 8, 7, 22, 23, 28, 27
3, 3, 4, 9, 8, 23, 24, 29, 28
4, 4, 5, 10, 9, 24, 25, 30, 29
5, 6, 7, 12, 11, 26, 27, 32, 31
6, 7, 8, 13, 12, 27, 28, 33, 32
7, 8, 9, 14, 13, 28, 29, 34, 33
8, 9, 10, 15, 14, 29, 30, 35, 34
9, 11, 12, 17, 16, 31, 32, 37, 36
10, 12, 13, 18, 17, 32, 33, 38, 37
11, 13, 14, 19, 18, 33, 34, 39, 38
12, 14, 15, 20, 19, 34, 35, 40, 39
13, 21, 22, 27, 26, 41, 42, 47, 46
14, 22, 23, 28, 27, 42, 43, 48, 47
15, 23, 24, 29, 28, 43, 44, 49, 48
16, 24, 25, 30, 29, 44, 45, 50, 49
17, 26, 27, 32, 31, 46, 47, 52, 51
18, 27, 28, 33, 32, 47, 48, 53, 52
19, 28, 29, 34, 33, 48, 49, 54, 53
20, 29, 30, 35, 34, 49, 50, 55, 54
21, 31, 32, 37, 36, 51, 52, 57, 56
22, 32, 33, 38, 37, 52, 53, 58, 57
23, 33, 34, 39, 38, 53, 54, 59, 58
24, 34, 35, 40, 39, 54, 55, 60, 59
*Nset, nset=NS, generate
1, 10, 1
*Elset, elset=ES, generate
1, 12, 1
*End Part
*Part, name=EMBFIB
*Node, nset=EMBMESH_NODES
100000, 0, 0.125, 0.125
100001, 4, 0.125, 0.125
100002, 0, 0.375, 0.125
100003, 4, 0.375, 0.125
100004, 0, 0.625, 0.125
100005, 4, 0.625, 0.125
100006, 0, 0.875, 0.125
100007, 4, 0.875, 0.125
100008, 0, 1.125, 0.125
100009, 4, 1.125, 0.125
100010, 0, 1.375, 0.125
100011, 4, 1.375, 0.125
100012, 0, 1.625, 0.125
100013, 4, 1.625, 0.125
100014, 0, 1.875, 0.125
100015, 4, 1.875, 0.125
100016, 0, 2.125, 0.125
100017, 4, 2.125, 0.125
100018, 0, 2.375, 0.125
100019, 4, 2.375, 0.125
100020, 0, 2.625, 0.125
100021, 4, 2.625, 0.125
100022, 0, 2.875, 0.125
100023, 4, 2.875, 0.125
100024, 0.125, 0, 0.375
100025, 0.125, 3, 0.375
100026, 0.375, 0, 0.375
100027, 0.375, 3, 0.375
100028, 0.625, 0, 0.375
100029, 0.625, 3, 0.375
100030, 0.875, 0, 0.375
100031, 0.875, 3, 0.375
100032, 1.125, 0, 0.375
100033, 1.125, 3, 0.375
100034, 1.375, 0, 0.375
100035, 1.375, 3, 0.375
100036, 1.625, 0, 0.375
100037, 1.625, 3, 0.375
100038, 1.875, 0, 0.375
100039, 1.875, 3, 0.375
100040, 2.125, 0, 0.375
100041, 2.125, 3, 0.375
100042, 2.375, 0, 0.375
100043, 2.375, 3, 0.375
100044, 2.625, 0, 0.375
100045, 2.625, 3, 0.375
100046, 2.875, 0, 0.375
100047, 2.875, 3, 0.375
100048, 3.125, 0, 0.375
100049, 3.125, 3, 0.375
100050, 3.375, 0, 0.375
100051, 3.375, 3, 0.375
100052, 3.625, 0, 0.375
100053, 3.625, 3, 0.375
100054, 3.875, 0, 0.375
100055, 3.875, 3, 0.375
100056, 0, 0.125, 0.625
100057, 4, 0.125, 0.625
100058, 0, 0.375, 0.625
100059, 4, 0.375, 0.625
100060, 0, 0.625, 0.625
100061, 4, 0.625, 0.625
100062, 0, 0.875, 0.625
100063, 4, 0.875, 0.625
100064, 0, 1.125, 0.625
100065, 4, 1.125, 0.625
100066, 0, 1.375, 0.625
100067, 4, 1.375, 0.625
100068, 0, 1.625, 0.625
100069, 4, 1.625, 0.625
100070, 0, 1.875, 0.625
100071, 4, 1.875, 0.625
100072, 0, 2.125, 0.625
100073, 4, 2.125, 0.625
100074, 0, 2.375, 0.625
100075, 4, 2.375, 0.625
100076, 0, 2.625, 0.625
100077, 4, 2.625, 0.625
100078, 0, 2.875, 0.625
100079, 4, 2.875, 0.625
100080, 0.125, 0, 0.875
100081, 0.125, 3, 0.875
100082, 0.375, 0, 0.875
100083, 0.375, 3, 0.875
100084, 0.625, 0, 0.875
100085, 0.625, 3, 0.875
100086, 0.875, 0, 0.875
100087, 0.875, 3, 0.875
100088, 1.125, 0, 0.875
100089, 1.125, 3, 0.875
100090, 1.375, 0, 0.875
100091, 1.375, 3, 0.875
100092, 1.625, 0, 0.875
100093, 1.625, 3, 0.875
100094, 1.875, 0, 0.875
100095, 1.875, 3, 0.875
100096, 2.125, 0, 0.875
100097, 2.125, 3, 0.875
100098, 2.375, 0, 0.875
100099, 2.375, 3, 0.875
100100, 2.625, 0, 0.875
100101, 2.625, 3, 0.875
100102, 2.875, 0, 0.875
100103, 2.875, 3, 0.875
100104, 3.125, 0, 0.875
100105, 3.125, 3, 0.875
100106, 3.375, 0, 0.875
100107, 3.375, 3, 0.875
100108, 3.625, 0, 0.875
100109, 3.625, 3, 0.875
100110, 3.875, 0, 0.875
100111, 3.875, 3, 0.875
100112, 0, 0.125, 1.125
100113, 4, 0.125, 1.125
100114, 0, 0.375, 1.125
100115, 4, 0.375, 1.125
100116, 0, 0.625, 1.125
100117, 4, 0.625, 1.125
100118, 0, 0.875, 1.125
100119, 4, 0.875, 1.125
100120, 0, 1.125, 1.125
100121, 4, 1.125, 1.125
100122, 0, 1.375, 1.125
100123, 4, 1.375, 1.125
100124, 0, 1.625, 1.125
100125, 4, 1.625, 1.125
100126, 0, 1.875, 1.125
100127, 4, 1.875, 1.125
100128, 0, 2.125, 1.125
100129, 4, 2.125, 1.125
100130, 0, 2.375, 1.125
100131, 4, 2.375, 1.125
100132, 0, 2.625, 1.125
100133, 4, 2.625, 1.125
100134, 0, 2.875, 1.125
100135, 4, 2.875, 1.125
100136, 0.125, 0, 1.375
100137, 0.125, 3, 1.375
100138, 0.375, 0, 1.375
100139, 0.375, 3, 1.375
100140, 0.625, 0, 1.375
100141, 0.625, 3, 1.375
100142, 0.875, 0, 1.375
100143, 0.875, 3, 1.375
100144, 1.125, 0, 1.375
100145, 1.125, 3, 1.375
100146, 1.375, 0, 1.375
100147, 1.375, 3, 1.375
100148, 1.625, 0, 1.375
100149, 1.625, 3, 1.375
100150, 1.875, 0, 1.375
100151, 1.875, 3, 1.375
100152, 2.125, 0, 1.375
100153, 2.125, 3, 1.375
100154, 2.375, 0, 1.375
100155, 2.375, 3, 1.375
100156, 2.625, 0, 1.375
100157, 2.625, 3, 1.375
100158, 2.875, 0, 1.375
100159, 2.875, 3, 1.375
100160, 3.125, 0, 1.375
100161, 3.125, 3, 1.375
100162, 3.375, 0, 1.375
100163, 3.375, 3, 1.375
100164, 3.625, 0, 1.375
100165, 3.625, 3, 1.375
100166, 3.875, 0, 1.375
100167, 3.875, 3, 1.375
100168, 0, 0.125, 1.625
100169, 4, 0.125, 1.625
100170, 0, 0.375, 1.625
100171, 4, 0.375, 1.625
100172, 0, 0.625, 1.625
100173, 4, 0.625, 1.625
100174, 0, 0.875, 1.625
100175, 4, 0.875, 1.625
100176, 0, 1.125, 1.625
100177, 4, 1.125, 1.625
100178, 0, 1.375, 1.625
100179, 4, 1.375, 1.625
100180, 0, 1.625, 1.625
100181, 4, 1.625, 1.625
100182, 0, 1.875, 1.625
100183, 4, 1.875, 1.625
100184, 0, 2.125, 1.625
100185, 4, 2.125, 1.625
100186, 0, 2.375, 1.625
100187, 4, 2.375, 1.625
100188, 0, 2.625, 1.625
100189, 4, 2.625, 1.625
100190, 0, 2.875, 1.625
100191, 4, 2.875, 1.625
100192, 0.125, 0, 1.875
100193, 0.125, 3, 1.875
100194, 0.375, 0, 1.875
100195, 0.375, 3, 1.875
100196, 0.625, 0, 1.875
100197, 0.625, 3, 1.875
100198, 0.875, 0, 1.875
100199, 0.875, 3, 1.875
100200, 1.125, 0, 1.875
100201, 1.125, 3, 1.875
100202, 1.375, 0, 1.875
100203, 1.375, 3, 1.875
100204, 1.625, 0, 1.875
100205, 1.625, 3, 1.875
100206, 1.875, 0, 1.875
100207, 1.875, 3, 1.875
100208, 2.125, 0, 1.875
100209, 2.125, 3, 1.875
100210, 2.375, 0, 1.875
100211, 2.375, 3, 1.875
100212, 2.625, 0, 1.875
100213, 2.625, 3, 1.875
100214, 2.875, 0, 1.875
100215, 2.875, 3, 1.875
100216, 3.125, 0, 1.875
100217, 3.125, 3, 1.875
100218, 3.375, 0, 1.875
100219, 3.375, 3, 1.875
100220, 3.625, 0, 1.875
100221, 3.625, 3, 1.875
100222, 3.875, 0, 1.875
100223, 3.875, 3, 1.875
*Element, type=T3D2, elset=EMBMESH_FIBERS_T0
100000, 100000,100001
100001, 100002,100003
100002, 100004,100005
100003, 100006,100007
100004, 100008,100009
100005, 100010,100011
100006, 100012,100013
100007, 100014,100015
100008, 100016,100017
100009, 100018,100019
100010, 100020,100021
100011, 100022,100023
100028, 100056,100057
100029, 100058,100059
100030, 100060,100061
100031, 100062,100063
100032, 100064,100065
100033, 100066,100067
100034, 100068,100069
100035, 100070,100071
100036, 100072,100073
100037, 100074,100075
100038, 100076,100077
100039, 100078,100079
100056, 100112,100113
100057, 100114,100115
100058, 100116,100117
100059, 100118,100119
100060, 100120,100121
100061, 100122,100123
100062, 100124,100125
100063, 100126,100127
100064, 100128,100129
100065, 100130,100131
100066, 100132,100133
100067, 100134,100135
100084, 100168,100169
100085, 100170,100171
100086, 100172,100173
100087, 100174,100175
100088, 100176,100177
100089, 100178,100179
100090, 100180,100181
100091, 100182,100183
100092, 100184,100185
100093, 100186,100187
100094, 100188,100189
100095, 100190,100191
*Element, type=T3D2, elset=EMBMESH_FIBERS_T90
100012, 100024,100025
100013, 100026,100027
100014, 100028,100029
100015, 100030,100031
100016, 100032,100033
100017, 100034,100035
100018, 100036,100037
100019, 100038,100039
100020, 100040,100041
100021, 100042,100043
100022, 100044,100045
100023, 100046,100047
100024, 100048,100049
100025, 100050,100051
100026, 100052,100053
100027, 100054,100055
100040, 100080,100081
100041, 100082,100083
100042, 100084,100085
100043, 100086,100087
100044, 100088,100089
100045, 100090,100091
100046, 100092,100093
100047, 100094,100095
100048, 100096,100097
100049, 100098,100099
100050, 100100,100101
100051, 100102,100103
100052, 100104,100105
100053, 100106,100107
100054, 100108,100109
100055, 100110,100111
100068, 100136,100137
100069, 100138,100139
100070, 100140,100141
100071, 100142,100143
100072, 100144,100145
100073, 100146,100147
100074, 100148,100149
100075, 100150,100151
100076, 100152,100153
100077, 100154,100155
100078, 100156,100157
100079, 100158,100159
100080, 100160,100161
100081, 100162,100163
100082, 100164,100165
100083, 100166,100167
100096, 100192,100193
100097, 100194,100195
100098, 100196,100197
100099, 100198,100199
100100, 100200,100201
100101, 100202,100203
100102, 100204,100205
100103, 100206,100207
100104, 100208,100209
100105, 100210,100211
100106, 100212,100213
100107, 100214,100215
100108, 100216,100217
100109, 100218,100219
100110, 100220,100221
100111, 100222,100223
*Solid Section, elset=EMBMESH_FIBERS_T0, material=EMBMESH_FIBER
0.0490873852123405
*Solid Section, elset=EMBMESH_FIBERS_T90, material=EMBMESH_FIBER
0.0490873852123405
*End Part
*Assembly, name=Assembly
*Instance, name=PLATE-1, part=PLATE
*End Instance
*Instance, name=EMBFIB-1, part=EMBFIB
*End Instance
*Embedded Element, host elset=PLATE-1.HOST
EMBFIB-1.EMBMESH_FIBERS_T0
EMBFIB-1.EMBMESH_FIBERS_T90
*End Assembly
*Material, name=EMBMESH_FIBER
*Elastic
1, 0.3
