*Heading
** verification deck t17_990785.inp
*Part, name=PLATE
*Node
1, 0, 0, 0
2, 0.5, 0, 0
3, 1, 0, 0
4, 1.5, 0, 0
5, 2, 0, 0
6, 0, 0.5, 0
7, 0.5, 0.5, 0
8, 1, 0.5, 0
9, 1.5, 0.5, 0
10, 2, 0.5, 0
11, 0, 1, 0
12, 0.5, 1, 0
13, 1, 1, 0
14, 1.5, 1, 0
15, 2, 1, 0
16, 0, 1.5, 0
17, 0.5, 1.5, 0
18, 1, 1.5, 0
19, 1.5, 1.5, 0
20, 2, 1.5, 0
21, 0, 2, 0
22, 0.5, 2, 0
23, 1, 2, 0
24, 1.5, 2, 0
25, 2, 2, 0
26, 0, 0, 0.5
27, 0.5, 0, 0.5
28, 1, 0, 0.5
29, 1.5, 0, 0.5
30, 2, 0, 0.5
31, 0, 0.5, 0.5
32, 0.5, 0.5, 0.5
33, 1, 0.5, 0.5
34, 1.5, 0.5, 0.5
35, 2, 0.5, 0.5
36, 0, 1, 0.5
37, 0.5, 1, 0.5
38, 1, 1, 0.5
39, 1.5, 1, 0.5
40, 2, 1, 0.5
41, 0, 1.5, 0.5
42, 0.5, 1.5, 0.5
43, 1, 1.5, 0.5
44, 1.5, 1.5, 0.5
45, 2, 1.5, 0.5
46, 0, 2, 0.5
47, 0.5, 2, 0.5
48, 1, 2, 0.5
49, 1.5, 2, 0.5
50, 2, 2, 0.5
51, 0, 0, 1
52, 0.5, 0, 1
53, 1, 0, 1
54, 1.5, 0, 1
55, 2, 0, 1
56, 0, 0.5, 1
57, 0.5, 0.5, 1
58, 1, 0.5, 1
59, 1.5, 0.5, 1
60, 2, 0.5, 1
61, 0, 1, 1
62, 0.5, 1, 1
63, 1, 1, 1
64, 1.5, 1, 1
65, 2, 1, 1
66, 0, 1.5, 1
67, 0.5, 1.5, 1
68, 1, 1.5, 1
69, 1.5, 1.5, 1
70, 2, 1.5, 1
71, 0, 2, 1
72, 0.5, 2, 1
73, 1, 2, 1
74, 1.5, 2, 1
75, 2, 2, 1
*Element, type=C3D8R, elset=HOST
1, 1, 2, 7, 6, 26, 27, 32, 31
2, 2, 3, 8, 7, 27, 28, 33, 32
3, 3, 4, 9, 8, 28, 29, 34, 33
4, 4, 5, 10, 9, 29, 30, 35, 34
5, 6, 7, 12, 11, 31, 32, 37, 36
6, 7, 8, 13, 12, 32, 33, 38, 37
7, 8, 9, 14, 13, 33, 34, 39, 38
8, 9, 10, 15, 14, 34, 35, 40, 39
9, 11, 12, 17, 16, 36, 37, 42, 41
10, 12, 13, 18, 17, 37, 38, 43, 42
11, 13, 14, 19, 18, 38, 39, 44, 43
12, 14, 15, 20, 19, 39, 40, 45, 44
13, 16, 17, 22, 21, 41, 42, 47, 46
14, 17, 18, 23, 22, 42, 43, 48, 47
15, 18, 19, 24, 23, 43, 44, 49, 48
16, 19, 20, 25, 24, 44, 45, 50, 49
17, 26, 27, 32, 31, 51, 52, 57, 56
18, 27, 28, 33, 32, 52, 53, 58, 57
19, 28, 29, 34, 33, 53, 54, 59, 58
20, 29, 30, 35, 34, 54, 55, 60, 59
21, 31, 32, 37, 36, 56, 57, 62, 61
22, 32, 33, 38, 37, 57, 58, 63, 62
23, 33, 34, 39, 38, 58, 59, 64, 63
24, 34, 35, 40, 39, 59, 60, 65, 64
25, 36, 37, 42, 41, 61, 62, 67, 66
26, 37, 38, 43, 42, 62, 63, 68, 67
27, 38, 39, 44, 43, 63, 64, 69, 68
28, 39, 40, 45, 44, 64, 65, 70, 69
29, 41, 42, 47, 46, 66, 67, 72, 71
30, 42, 43, 48, 47, 67, 68, 73, 72
31, 43, 44, 49, 48, 68, 69, 74, 73
32, 44, 45, 50, 49, 69, 70, 75, 74
*Nset, nset=XSYM
1,6,11,16,21,26,31,36,41,46,51,56,61,66,71
*Nset, nset=YSYM
1,2,3,4,5,26,27,28,29,30,51,52,53,54,55
*End Part
*Assembly, name=Assembly
*Instance, name=PLATE-1, part=PLATE
*End Instance
*End Assembly
*Step, name=S
*Dynamic, Explicit
, 1e-3
*Boundary
XSYM, 1, 1
YSYM, 2, 2
*End Step
** embmesh generated fibers
*Node, nset=EMBMESH_NODES
100000, 0, 0.125, 0.125
100001, 2, 0.125, 0.125
100002, 0, 0.375, 0.125
100003, 2, 0.375, 0.125
100004, 0, 0.625, 0.125
100005, 2, 0.625, 0.125
100006, 0, 0.875, 0.125
100007, 2, 0.875, 0.125
100008, 0, 1.125, 0.125
100009, 2, 1.125, 0.125
100010, 0, 1.375, 0.125
100011, 2, 1.375, 0.125
100012, 0, 1.625, 0.125
100013, 2, 1.625, 0.125
100014, 0, 1.875, 0.125
100015, 2, 1.875, 0.125
100016, 0.125, -2.22044604925e-16, 0.375
100017, 0.125, 2, 0.375
100018, 0.375, -2.22044604925e-16, 0.375
100019, 0.375, 2, 0.375
100020, 0.625, -2.22044604925e-16, 0.375
100021, 0.625, 2, 0.375
100022, 0.875, -2.22044604925e-16, 0.375
100023, 0.875, 2, 0.375
100024, 1.125, -2.22044604925e-16, 0.375
100025, 1.125, 2, 0.375
100026, 1.375, -2.22044604925e-16, 0.375
100027, 1.375, 2, 0.375
100028, 1.625, -2.22044604925e-16, 0.375
100029, 1.625, 2, 0.375
100030, 1.875, -2.22044604925e-16, 0.375
100031, 1.875, 2, 0.375
100032, 0, 0.125, 0.625
100033, 2, 0.125, 0.625
100034, 0, 0.375, 0.625
100035, 2, 0.375, 0.625
100036, 0, 0.625, 0.625
100037, 2, 0.625, 0.625
100038, 0, 0.875, 0.625
100039, 2, 0.875, 0.625
100040, 0, 1.125, 0.625
100041, 2, 1.125, 0.625
100042, 0, 1.375, 0.625
100043, 2, 1.375, 0.625
100044, 0, 1.625, 0.625
100045, 2, 1.625, 0.625
100046, 0, 1.875, 0.625
100047, 2, 1.875, 0.625
100048, 0.125, 0, 0.875
100049, 0.125, 2, 0.875
100050, 0.375, 0, 0.875
100051, 0.375, 2, 0.875
100052, 0.625, 0, 0.875
100053, 0.625, 2, 0.875
100054, 0.875, 0, 0.875
100055, 0.875, 2, 0.875
100056, 1.125, 0, 0.875
100057, 1.125, 2, 0.875
100058, 1.375, 0, 0.875
100059, 1.375, 2, 0.875
100060, 1.625, 0, 0.875
100061, 1.625, 2, 0.875
100062, 1.875, 0, 0.875
100063, 1.875, 2, 0.875
*Element, type=T3D2, elset=EMBMESH_FIBERS
100000, 100000,100001
100001, 100002,100003
100002, 100004,100005
100003, 100006,100007
100004, 100008,100009
100005, 100010,100011
100006, 100012,100013
100007, 100014,100015
100008, 100016,100017
100009, 100018,100019
100010, 100020,100021
100011, 100022,100023
100012, 100024,100025
100013, 100026,100027
100014, 100028,100029
100015, 100030,100031
100016, 100032,100033
100017, 100034,100035
100018, 100036,100037
100019, 100038,100039
100020, 100040,100041
100021, 100042,100043
100022, 100044,100045
100023, 100046,100047
100024, 100048,100049
100025, 100050,100051
100026, 100052,100053
100027, 100054,100055
100028, 100056,100057
100029, 100058,100059
100030, 100060,100061
100031, 100062,100063
*Solid Section, elset=EMBMESH_FIBERS, material=EMBMESH_FIBER
0.0490873852123405
*Material, name=EMBMESH_FIBER
*Elastic
1., 0.3
*Embedded Element, host elset=HOST
EMBMESH_FIBERS
** embmesh propagated fiber nodes to symmetry set XSYM
*Nset, nset=XSYM
100000, 100002, 100004, 100006, 100008, 100010, 100012, 100014, 100032, 100034, 100036, 100038, 100040, 100042, 100044, 100046
** embmesh propagated fiber nodes to symmetry set YSYM
*Nset, nset=YSYM
100016, 100018, 100020, 100022, 100024, 100026, 100028, 100030, 100048, 100050, 100052, 100054, 100056, 100058, 100060, 100062
