*Part, name=DISC
*Node
1,0,0,0
2,1,0,0
3,1,1,0
4,0,1,0
5,0,0,1
6,1,0,1
7,1,1,1
8,0,1,1
*Element, type=C3D8, elset=HOST
1,1,2,3,4,5,6,7,8
*Solid Section, elset=HOST, material=MATRIX
,
*End Part
*Part, name=EMBFIB
*Node, nset=EMBMESH_NODES
100000, 0, 0.125, 0.125
100001, 1, 0.125, 0.125
100002, 0, 0.375, 0.125
100003, 1, 0.375, 0.125
100004, 0, 0.625, 0.125
100005, 1, 0.625, 0.125
100006, 0, 0.875, 0.125
100007, 1, 0.875, 0.125
100008, 0.125, 0, 0.375
100009, 0.125, 1, 0.375
100010, 0.375, 0, 0.375
100011, 0.375, 1, 0.375
100012, 0.625, 0, 0.375
100013, 0.625, 1, 0.375
100014, 0.875, 0, 0.375
100015, 0.875, 1, 0.375
100016, 0, 0.125, 0.625
100017, 1, 0.125, 0.625
100018, 0, 0.375, 0.625
100019, 1, 0.375, 0.625
100020, 0, 0.625, 0.625
100021, 1, 0.625, 0.625
100022, 0, 0.875, 0.625
100023, 1, 0.875, 0.625
100024, 0.125, 0, 0.875
100025, 0.125, 1, 0.875
100026, 0.375, 0, 0.875
100027, 0.375, 1, 0.875
100028, 0.625, 0, 0.875
100029, 0.625, 1, 0.875
100030, 0.875, 0, 0.875
100031, 0.875, 1, 0.875
*Element, type=B31, elset=EMBMESH_FIBERS_T0
100000, 100000,100001
100001, 100002,100003
100002, 100004,100005
100003, 100006,100007
100008, 100016,100017
100009, 100018,100019
100010, 100020,100021
100011, 100022,100023
*Element, type=B31, elset=EMBMESH_FIBERS_T90
100004, 100008,100009
100005, 100010,100011
100006, 100012,100013
100007, 100014,100015
100012, 100024,100025
100013, 100026,100027
100014, 100028,100029
100015, 100030,100031
*Beam Section, elset=EMBMESH_FIBERS_T0, material=EMBMESH_FIBER, section=CIRC
0.125, 0, 0, 1
*Beam Section, elset=EMBMESH_FIBERS_T90, material=EMBMESH_FIBER, section=CIRC
0.125, 0, 0, 1
*Normal
100000, 100000, 0, 0, 1
100000, 100001, 0, 0, 1
100001, 100002, 0, 0, 1
100001, 100003, 0, 0, 1
100002, 100004, 0, 0, 1
100002, 100005, 0, 0, 1
100003, 100006, 0, 0, 1
100003, 100007, 0, 0, 1
100004, 100008, 0, 0, 1
100004, 100009, 0, 0, 1
100005, 100010, 0, 0, 1
100005, 100011, 0, 0, 1
100006, 100012, 0, 0, 1
100006, 100013, 0, 0, 1
100007, 100014, 0, 0, 1
100007, 100015, 0, 0, 1
100008, 100016, 0, 0, 1
100008, 100017, 0, 0, 1
100009, 100018, 0, 0, 1
100009, 100019, 0, 0, 1
100010, 100020, 0, 0, 1
100010, 100021, 0, 0, 1
100011, 100022, 0, 0, 1
100011, 100023, 0, 0, 1
100012, 100024, 0, 0, 1
100012, 100025, 0, 0, 1
100013, 100026, 0, 0, 1
100013, 100027, 0, 0, 1
100014, 100028, 0, 0, 1
100014, 100029, 0, 0, 1
100015, 100030, 0, 0, 1
100015, 100031, 0, 0, 1
*End Part
*Assembly
*Instance, name=DISC-1, part=DISC
*End Instance
*Instance, name=EMBFIB-1, part=EMBFIB
*End Instance
*Embedded Element, host elset=DISC-1.HOST
EMBFIB-1.EMBMESH_FIBERS_T0
EMBFIB-1.EMBMESH_FIBERS_T90
*End Assembly
*Material, name=MATRIX
*Density
1.2e-09,
*Elastic
3500, 0.35
*Material, name=EMBMESH_FIBER
*Elastic
1, 0.3
*Amplitude, name=RAMP, definition=SMOOTH STEP
0., 0., 1e-05, 1.
*Step, name=S1
*Dynamic, Explicit
, 1e-05
*End Step
