*Heading
** verification deck t13_Lshape.inp
*Part, name=PLATE
*Node
1, 0, 0, 0
2, 0.5, 0, 0
3, 1, 0, 0
4, 1.5, 0, 0
5, 2, 0, 0
6, 0, 0.5, 0
7, 0.5, 0.5, 0
8, 1, 0.5, 0
9, 1.5, 0.5, 0
10, 2, 0.5, 0
11, 0, 1, 0
12, 0.5, 1, 0
13, 1, 1, 0
14, 1.5, 1, 0
15, 2, 1, 0
16, 0, 1.5, 0
17, 0.5, 1.5, 0
18, 1, 1.5, 0
19, 1.5, 1.5, 0
20, 2, 1.5, 0
21, 0, 2, 0
22, 0.5, 2, 0
23, 1, 2, 0
24, 1.5, 2, 0
25, 2, 2, 0
26, 0, 0, 0.5
27, 0.5, 0, 0.5
28, 1, 0, 0.5
29, 1.5, 0, 0.5
30, 2, 0, 0.5
31, 0, 0.5, 0.5
32, 0.5, 0.5, 0.5
33, 1, 0.5, 0.5
34, 1.5, 0.5, 0.5
35, 2, 0.5, 0.5
36, 0, 1, 0.5
37, 0.5, 1, 0.5
38, 1, 1, 0.5
39, 1.5, 1, 0.5
40, 2, 1, 0.5
41, 0, 1.5, 0.5
42, 0.5, 1.5, 0.5
43, 1, 1.5, 0.5
44, 1.5, 1.5, 0.5
45, 2, 1.5, 0.5
46, 0, 2, 0.5
47, 0.5, 2, 0.5
48, 1, 2, 0.5
49, 1.5, 2, 0.5
50, 2, 2, 0.5
51, 0, 0, 1
52, 0.5, 0, 1
53, 1, 0, 1
54, 1.5, 0, 1
55, 2, 0, 1
56, 0, 0.5, 1
57, 0.5, 0.5, 1
58, 1, 0.5, 1
59, 1.5, 0.5, 1
60, 2, 0.5, 1
61, 0, 1, 1
62, 0.5, 1, 1
63, 1, 1, 1
64, 1.5, 1, 1
65, 2, 1, 1
66, 0, 1.5, 1
67, 0.5, 1.5, 1
68, 1, 1.5, 1
69, 1.5, 1.5, 1
70, 2, 1.5, 1
71, 0, 2, 1
72, 0.5, 2, 1
73, 1, 2, 1
74, 1.5, 2, 1
75, 2, 2, 1
*Element, type=C3D8R, elset=HOST
1, 1, 2, 7, 6, 26, 27, 32, 31
2, 2, 3, 8, 7, 27, 28, 33, 32
5, 6, 7, 12, 11, 31, 32, 37, 36
6, 7, 8, 13, 12, 32, 33, 38, 37
9, 11, 12, 17, 16, 36, 37, 42, 41
10, 12, 13, 18, 17, 37, 38, 43, 42
13, 16, 17, 22, 21, 41, 42, 47, 46
14, 17, 18, 23, 22, 42, 43, 48, 47
17, 26, 27, 32, 31, 51, 52, 57, 56
18, 27, 28, 33, 32, 52, 53, 58, 57
21, 31, 32, 37, 36, 56, 57, 62, 61
22, 32, 33, 38, 37, 57, 58, 63, 62
25, 36, 37, 42, 41, 61, 62, 67, 66
26, 37, 38, 43, 42, 62, 63, 68, 67
29, 41, 42, 47, 46, 66, 67, 72, 71
30, 42, 43, 48, 47, 67, 68, 73, 72
*End Part
*Part, name=EMBFIB
*Node, nset=EMBMESH_NODES
100000, 0, 0.125, 0.125
100001, 1, 0.125, 0.125
100002, 0, 0.375, 0.125
100003, 1, 0.375, 0.125
100004, 0, 0.625, 0.125
100005, 1, 0.625, 0.125
100006, 0, 0.875, 0.125
100007, 1, 0.875, 0.125
100008, 0, 1.125, 0.125
100009, 1, 1.125, 0.125
100010, 0, 1.375, 0.125
100011, 1, 1.375, 0.125
100012, 0, 1.625, 0.125
100013, 1, 1.625, 0.125
100014, 0, 1.875, 0.125
100015, 1, 1.875, 0.125
100016, 0.125, 0, 0.375
100017, 0.125, 2, 0.375
100018, 0.375, 0, 0.375
100019, 0.375, 2, 0.375
100020, 0.625, 0, 0.375
100021, 0.625, 2, 0.375
100022, 0.875, 0, 0.375
100023, 0.875, 2, 0.375
100024, 0, 0.125, 0.625
100025, 1, 0.125, 0.625
100026, 0, 0.375, 0.625
100027, 1, 0.375, 0.625
100028, 0, 0.625, 0.625
100029, 1, 0.625, 0.625
100030, 0, 0.875, 0.625
100031, 1, 0.875, 0.625
100032, 0, 1.125, 0.625
100033, 1, 1.125, 0.625
100034, 0, 1.375, 0.625
100035, 1, 1.375, 0.625
100036, 0, 1.625, 0.625
100037, 1, 1.625, 0.625
100038, 0, 1.875, 0.625
100039, 1, 1.875, 0.625
100040, 0.125, 0, 0.875
100041, 0.125, 2, 0.875
100042, 0.375, 0, 0.875
100043, 0.375, 2, 0.875
100044, 0.625, 0, 0.875
100045, 0.625, 2, 0.875
100046, 0.875, 0, 0.875
100047, 0.875, 2, 0.875
*Element, type=T3D2, elset=EMBMESH_FIBERS_T0
100000, 100000,100001
100001, 100002,100003
100002, 100004,100005
100003, 100006,100007
100004, 100008,100009
100005, 100010,100011
100006, 100012,100013
100007, 100014,100015
100012, 100024,100025
100013, 100026,100027
100014, 100028,100029
100015, 100030,100031
100016, 100032,100033
100017, 100034,100035
100018, 100036,100037
100019, 100038,100039
*Element, type=T3D2, elset=EMBMESH_FIBERS_T90
100008, 100016,100017
100009, 100018,100019
100010, 100020,100021
100011, 100022,100023
100020, 100040,100041
100021, 100042,100043
100022, 100044,100045
100023, 100046,100047
*Solid Section, elset=EMBMESH_FIBERS_T0, material=EMBMESH_FIBER
0.0490873852123405
*Solid Section, elset=EMBMESH_FIBERS_T90, material=EMBMESH_FIBER
0.0490873852123405
*End Part
*Assembly, name=Assembly
*Instance, name=PLATE-1, part=PLATE
*End Instance
*Instance, name=EMBFIB-1, part=EMBFIB
*End Instance
*Embedded Element, host elset=PLATE-1.HOST
EMBFIB-1.EMBMESH_FIBERS_T0
EMBFIB-1.EMBMESH_FIBERS_T90
*End Assembly
*Material, name=EMBMESH_FIBER
*Elastic
1, 0.3
