*Part, name=DISC
*Node
1,0,0,0
2,1,0,0
3,1,1,0
4,0,1,0
5,0,0,1
6,1,0,1
7,1,1,1
8,0,1,1
*Element, type=C3D8, elset=HOST
1,1,2,3,4,5,6,7,8
*End Part
*Assembly
*Instance, name=DISC-1, part=DISC
*End Instance
*End Assembly
** embmesh generated fibers
*Node, nset=EMBMESH_NODES
100000, 0, 0.125, 0.075
100001, 1, 0.125, 0.075
100002, 0, 0.275, 0.075
100003, 1, 0.275, 0.075
100004, 0, 0.425, 0.075
100005, 1, 0.425, 0.075
100006, 0, 0.575, 0.075
100007, 1, 0.575, 0.075
100008, 0, 0.725, 0.075
100009, 1, 0.725, 0.075
100010, 0, 0.875, 0.075
100011, 1, 0.875, 0.075
100012, 0.125, 0, 0.225
100013, 0.125, 1, 0.225
100014, 0.275, 0, 0.225
100015, 0.275, 1, 0.225
100016, 0.425, 0, 0.225
100017, 0.425, 1, 0.225
100018, 0.575, 0, 0.225
100019, 0.575, 1, 0.225
100020, 0.725, 0, 0.225
100021, 0.725, 1, 0.225
100022, 0.875, 0, 0.225
100023, 0.875, 1, 0.225
100024, 0, 0.125, 0.375
100025, 1, 0.125, 0.375
100026, 0, 0.275, 0.375
100027, 1, 0.275, 0.375
100028, 0, 0.425, 0.375
100029, 1, 0.425, 0.375
100030, 0, 0.575, 0.375
100031, 1, 0.575, 0.375
100032, 0, 0.725, 0.375
100033, 1, 0.725, 0.375
100034, 0, 0.875, 0.375
100035, 1, 0.875, 0.375
100036, 0.125, 0, 0.525
100037, 0.125, 1, 0.525
100038, 0.275, 0, 0.525
100039, 0.275, 1, 0.525
100040, 0.425, 0, 0.525
100041, 0.425, 1, 0.525
100042, 0.575, 0, 0.525
100043, 0.575, 1, 0.525
100044, 0.725, 0, 0.525
100045, 0.725, 1, 0.525
100046, 0.875, 0, 0.525
100047, 0.875, 1, 0.525
100048, 0, 0.125, 0.675
100049, 1, 0.125, 0.675
100050, 0, 0.275, 0.675
100051, 1, 0.275, 0.675
100052, 0, 0.425, 0.675
100053, 1, 0.425, 0.675
100054, 0, 0.575, 0.675
100055, 1, 0.575, 0.675
100056, 0, 0.725, 0.675
100057, 1, 0.725, 0.675
100058, 0, 0.875, 0.675
100059, 1, 0.875, 0.675
100060, 0.125, 0, 0.825
100061, 0.125, 1, 0.825
100062, 0.275, 0, 0.825
100063, 0.275, 1, 0.825
100064, 0.425, 0, 0.825
100065, 0.425, 1, 0.825
100066, 0.575, 0, 0.825
100067, 0.575, 1, 0.825
100068, 0.725, 0, 0.825
100069, 0.725, 1, 0.825
100070, 0.875, 0, 0.825
100071, 0.875, 1, 0.825
*Element, type=T3D2, elset=EMBMESH_FIBERS
100000, 100000,100001
100001, 100002,100003
100002, 100004,100005
100003, 100006,100007
100004, 100008,100009
100005, 100010,100011
100006, 100012,100013
100007, 100014,100015
100008, 100016,100017
100009, 100018,100019
100010, 100020,100021
100011, 100022,100023
100012, 100024,100025
100013, 100026,100027
100014, 100028,100029
100015, 100030,100031
100016, 100032,100033
100017, 100034,100035
100018, 100036,100037
100019, 100038,100039
100020, 100040,100041
100021, 100042,100043
100022, 100044,100045
100023, 100046,100047
100024, 100048,100049
100025, 100050,100051
100026, 100052,100053
100027, 100054,100055
100028, 100056,100057
100029, 100058,100059
100030, 100060,100061
100031, 100062,100063
100032, 100064,100065
100033, 100066,100067
100034, 100068,100069
100035, 100070,100071
*Solid Section, elset=EMBMESH_FIBERS, material=EMBMESH_FIBER
0.0490873852123405
*Material, name=EMBMESH_FIBER
*Elastic
1., 0.3
*Embedded Element, host elset=HOST
EMBMESH_FIBERS
