*Heading
*Preprint, echo=NO, model=YES, history=NO, contact=NO
** verification deck single_uniax_across_d0.15_src.inp
*Part, name=PLATE
*Node
1, 0, 0, 0
2, 1, 0, 0
3, 0, 1, 0
4, 1, 1, 0
5, 0, 0, 1
6, 1, 0, 1
7, 0, 1, 1
8, 1, 1, 1
*Element, type=C3D8R, elset=HOST
1, 1, 2, 4, 3, 5, 6, 8, 7
*Solid Section, elset=HOST, material=MATRIX
,
*End Part
*Assembly, name=Assembly
*Instance, name=PLATE-1, part=PLATE
*End Instance
*Nset, nset=LEFT, instance=PLATE-1
1, 3, 5, 7
*Nset, nset=RIGHT, instance=PLATE-1
2, 4, 6, 8
*Nset, nset=BOTTOM, instance=PLATE-1
1, 2, 3, 4
*Nset, nset=TOP, instance=PLATE-1
5, 6, 7, 8
*Nset, nset=FRONT, instance=PLATE-1
1, 2, 5, 6
*Nset, nset=BACK, instance=PLATE-1
3, 4, 7, 8
*Nset, nset=ORIGIN, instance=PLATE-1
1
*Nset, nset=ALLN, instance=PLATE-1
1, 2, 3, 4, 5, 6, 7, 8
*End Assembly
** embmesh generated fibers
*Node, nset=EMBMESH_NODES
100000, 0, 0.075, 0.075
100001, 1, 0.075, 0.075
100002, 0, 0.225, 0.075
100003, 1, 0.225, 0.075
100004, 0, 0.375, 0.075
100005, 1, 0.375, 0.075
100006, 0, 0.525, 0.075
100007, 1, 0.525, 0.075
100008, 0, 0.675, 0.075
100009, 1, 0.675, 0.075
100010, 0, 0.825, 0.075
100011, 1, 0.825, 0.075
100012, 0, 0.975, 0.075
100013, 1, 0.975, 0.075
100014, 0.075, 0, 0.225
100015, 0.075, 1, 0.225
100016, 0.225, 0, 0.225
100017, 0.225, 1, 0.225
100018, 0.375, 0, 0.225
100019, 0.375, 1, 0.225
100020, 0.525, 0, 0.225
100021, 0.525, 1, 0.225
100022, 0.675, 0, 0.225
100023, 0.675, 1, 0.225
100024, 0.825, 0, 0.225
100025, 0.825, 1, 0.225
100026, 0.975, 0, 0.225
100027, 0.975, 1, 0.225
100028, 0, 0.075, 0.375
100029, 1, 0.075, 0.375
100030, 0, 0.225, 0.375
100031, 1, 0.225, 0.375
100032, 0, 0.375, 0.375
100033, 1, 0.375, 0.375
100034, 0, 0.525, 0.375
100035, 1, 0.525, 0.375
100036, 0, 0.675, 0.375
100037, 1, 0.675, 0.375
100038, 0, 0.825, 0.375
100039, 1, 0.825, 0.375
100040, 0, 0.975, 0.375
100041, 1, 0.975, 0.375
100042, 0.075, 0, 0.525
100043, 0.075, 1, 0.525
100044, 0.225, 0, 0.525
100045, 0.225, 1, 0.525
100046, 0.375, 0, 0.525
100047, 0.375, 1, 0.525
100048, 0.525, 0, 0.525
100049, 0.525, 1, 0.525
100050, 0.675, 0, 0.525
100051, 0.675, 1, 0.525
100052, 0.825, 0, 0.525
100053, 0.825, 1, 0.525
100054, 0.975, 0, 0.525
100055, 0.975, 1, 0.525
100056, 0, 0.075, 0.675
100057, 1, 0.075, 0.675
100058, 0, 0.225, 0.675
100059, 1, 0.225, 0.675
100060, 0, 0.375, 0.675
100061, 1, 0.375, 0.675
100062, 0, 0.525, 0.675
100063, 1, 0.525, 0.675
100064, 0, 0.675, 0.675
100065, 1, 0.675, 0.675
100066, 0, 0.825, 0.675
100067, 1, 0.825, 0.675
100068, 0, 0.975, 0.675
100069, 1, 0.975, 0.675
100070, 0.075, 0, 0.825
100071, 0.075, 1, 0.825
100072, 0.225, 0, 0.825
100073, 0.225, 1, 0.825
100074, 0.375, 0, 0.825
100075, 0.375, 1, 0.825
100076, 0.525, 0, 0.825
100077, 0.525, 1, 0.825
100078, 0.675, 0, 0.825
100079, 0.675, 1, 0.825
100080, 0.825, 0, 0.825
100081, 0.825, 1, 0.825
100082, 0.975, 0, 0.825
100083, 0.975, 1, 0.825
*Element, type=T3D2, elset=EMBMESH_FIBERS
100000, 100000,100001
100001, 100002,100003
100002, 100004,100005
100003, 100006,100007
100004, 100008,100009
100005, 100010,100011
100006, 100012,100013
100007, 100014,100015
100008, 100016,100017
100009, 100018,100019
100010, 100020,100021
100011, 100022,100023
100012, 100024,100025
100013, 100026,100027
100014, 100028,100029
100015, 100030,100031
100016, 100032,100033
100017, 100034,100035
100018, 100036,100037
100019, 100038,100039
100020, 100040,100041
100021, 100042,100043
100022, 100044,100045
100023, 100046,100047
100024, 100048,100049
100025, 100050,100051
100026, 100052,100053
100027, 100054,100055
100028, 100056,100057
100029, 100058,100059
100030, 100060,100061
100031, 100062,100063
100032, 100064,100065
100033, 100066,100067
100034, 100068,100069
100035, 100070,100071
100036, 100072,100073
100037, 100074,100075
100038, 100076,100077
100039, 100078,100079
100040, 100080,100081
100041, 100082,100083
*Solid Section, elset=EMBMESH_FIBERS, material=EMBMESH_FIBER
0.0176714586764426
*Material, name=EMBMESH_FIBER
*Elastic
1., 0.3
*Embedded Element, host elset=HOST
EMBMESH_FIBERS
