*Heading
** verification deck host_src.inp
*Part, name=PLATE
*Node
1, 0, 0, 0
2, 0.5, 0, 0
3, 1, 0, 0
4, 0, 0.5, 0
5, 0.5, 0.5, 0
6, 1, 0.5, 0
7, 0, 1, 0
8, 0.5, 1, 0
9, 1, 1, 0
10, 0, 0, 0.5
11, 0.5, 0, 0.5
12, 1, 0, 0.5
13, 0, 0.5, 0.5
14, 0.5, 0.5, 0.5
15, 1, 0.5, 0.5
16, 0, 1, 0.5
17, 0.5, 1, 0.5
18, 1, 1, 0.5
19, 0, 0, 1
20, 0.5, 0, 1
21, 1, 0, 1
22, 0, 0.5, 1
23, 0.5, 0.5, 1
24, 1, 0.5, 1
25, 0, 1, 1
26, 0.5, 1, 1
27, 1, 1, 1
*Element, type=C3D8R, elset=HOST
1, 1, 2, 5, 4, 10, 11, 14, 13
2, 2, 3, 6, 5, 11, 12, 15, 14
3, 4, 5, 8, 7, 13, 14, 17, 16
4, 5, 6, 9, 8, 14, 15, 18, 17
5, 10, 11, 14, 13, 19, 20, 23, 22
6, 11, 12, 15, 14, 20, 21, 24, 23
7, 13, 14, 17, 16, 22, 23, 26, 25
8, 14, 15, 18, 17, 23, 24, 27, 26
*Solid Section, elset=HOST, material=MATRIX
,
*End Part
*Part, name=EMBFIB
*Node, nset=EMBMESH_NODES
100000, 1.73205080756e-06, 0.1, 0.1
100001, 0.999998267949, 0.1, 0.1
100002, 1.73205080756e-06, 0.35, 0.1
100003, 0.999998267949, 0.35, 0.1
100004, 1.73205080756e-06, 0.6, 0.1
100005, 0.999998267949, 0.6, 0.1
100006, 1.73205080756e-06, 0.85, 0.1
100007, 0.999998267949, 0.85, 0.1
100008, 0.1, 1.73205080756e-06, 0.35
100009, 0.1, 0.999998267949, 0.35
100010, 0.35, 1.73205080756e-06, 0.35
100011, 0.35, 0.999998267949, 0.35
100012, 0.6, 1.73205080756e-06, 0.35
100013, 0.6, 0.999998267949, 0.35
100014, 0.85, 1.73205080756e-06, 0.35
100015, 0.85, 0.999998267949, 0.35
100016, 1.73205080756e-06, 0.1, 0.6
100017, 0.999998267949, 0.1, 0.6
100018, 1.73205080756e-06, 0.35, 0.6
100019, 0.999998267949, 0.35, 0.6
100020, 1.73205080756e-06, 0.6, 0.6
100021, 0.999998267949, 0.6, 0.6
100022, 1.73205080756e-06, 0.85, 0.6
100023, 0.999998267949, 0.85, 0.6
100024, 0.1, 1.73205080756e-06, 0.85
100025, 0.1, 0.999998267949, 0.85
100026, 0.35, 1.73205080756e-06, 0.85
100027, 0.35, 0.999998267949, 0.85
100028, 0.6, 1.73205080756e-06, 0.85
100029, 0.6, 0.999998267949, 0.85
100030, 0.85, 1.73205080756e-06, 0.85
100031, 0.85, 0.999998267949, 0.85
*Element, type=T3D2, elset=EMBMESH_FIBERS_T0
100000, 100000,100001
100001, 100002,100003
100002, 100004,100005
100003, 100006,100007
100008, 100016,100017
100009, 100018,100019
100010, 100020,100021
100011, 100022,100023
*Element, type=T3D2, elset=EMBMESH_FIBERS_T90
100004, 100008,100009
100005, 100010,100011
100006, 100012,100013
100007, 100014,100015
100012, 100024,100025
100013, 100026,100027
100014, 100028,100029
100015, 100030,100031
*Solid Section, elset=EMBMESH_FIBERS_T0, material=FIBER
0.0314159265358979
*Solid Section, elset=EMBMESH_FIBERS_T90, material=FIBER
0.0314159265358979
*End Part
*Assembly, name=Assembly
*Instance, name=PLATE-1, part=PLATE
*End Instance
*Nset, nset=LEFT, instance=PLATE-1
1, 4, 7, 10, 13, 16, 19, 22, 25
*Nset, nset=RIGHT, instance=PLATE-1
3, 6, 9, 12, 15, 18, 21, 24, 27
*Nset, nset=ORIGIN, instance=PLATE-1
1
*Nset, nset=ALLN, instance=PLATE-1
1, 2, 3, 4, 5, 6, 7, 8, 9, 10, 11, 12, 13, 14, 15, 16, 17, 18, 19, 20, 21, 22, 23, 24, 25, 26, 27
*Instance, name=EMBFIB-1, part=EMBFIB
*End Instance
*Elset, elset=EMBMESH_HOST, instance=PLATE-1
1, 2, 3, 4, 5, 6, 7, 8
*Embedded Element, host elset=EMBMESH_HOST
EMBFIB-1.EMBMESH_FIBERS_T0
EMBFIB-1.EMBMESH_FIBERS_T90
*End Assembly

*Material, name=MATRIX
*Density
1.2e-09,
*Elastic
3500, 0.35
*Material, name=FIBER
*Density
1.8e-09,
*Elastic
230000, 0.2
*Amplitude, name=RAMP, definition=SMOOTH STEP
0., 0., 0.001, 1.
*Step, name=S1
*Dynamic, Explicit
, 0.001
*Boundary
LEFT, 1, 1
ORIGIN, 2, 3
*Boundary, amplitude=RAMP
RIGHT, 1, 1, 0.01
*Output, history, frequency=1000000
*Node Output, nset=RIGHT
RF1, RF2, RF3, U1, U2, U3
*Output, field, number interval=5
*Node Output
U, RF
*Element Output, directions=YES
S, E
*Output, history, time interval=2e-05
*Energy Output
ALLIE, ALLKE, ALLWK, ALLVD, ALLAE, ETOTAL
*End Step
